route("R1").
streetOnRoute("[210|43[0]]", "R1", 0, 0).
streetOnRoute("118", "R1", 65, 185).
link("[210|43[0]]", "118").
streetOnRoute("65", "R1", 80, 245).
link("118", "65").
streetOnRoute("57[0]", "R1", 90, 290).
link("65", "57[0]").
streetOnRoute("57[1]", "R1", 105, 375).
link("57[0]", "57[1]").
streetOnRoute("62", "R1", 110, 390).
link("57[1]", "62").
streetOnRoute("159", "R1", 130, 480).
link("62", "159").
streetOnRoute("42", "R1", 150, 535).
link("159", "42").
streetOnRoute("39", "R1", 155, 555).
link("42", "39").
streetOnRoute("35", "R1", 160, 575).
link("39", "35").
streetOnRoute("38", "R1", 170, 630).
link("35", "38").
streetOnRoute("50", "R1", 185, 690).
link("38", "50").
streetOnRoute("19", "R1", 195, 705).
link("50", "19").
streetOnRoute("[22|59]", "R1", 205, 740).
link("19", "[22|59]").
streetOnRoute("(53cd|53[0]|53[1][0]|53[1][1][0]|77[1][0])", "R1", 220, 760).
link("[22|59]", "(53cd|53[0]|53[1][0]|53[1][1][0]|77[1][0])").
streetOnRoute("77[1][1]", "R1", 225, 770).
link("(53cd|53[0]|53[1][0]|53[1][1][0]|77[1][0])", "77[1][1]").
route("R2").
streetOnRoute("[210|43[0]]", "R2", 0, 0).
streetOnRoute("118", "R2", 65, 185).
link("[210|43[0]]", "118").
streetOnRoute("65", "R2", 80, 245).
link("118", "65").
streetOnRoute("57[0]", "R2", 90, 290).
link("65", "57[0]").
streetOnRoute("57[1]", "R2", 105, 375).
link("57[0]", "57[1]").
streetOnRoute("62", "R2", 110, 390).
link("57[1]", "62").
streetOnRoute("159", "R2", 130, 480).
link("62", "159").
streetOnRoute("42", "R2", 150, 535).
link("159", "42").
streetOnRoute("39", "R2", 155, 555).
link("42", "39").
streetOnRoute("35", "R2", 160, 575).
link("39", "35").
streetOnRoute("38", "R2", 170, 630).
link("35", "38").
streetOnRoute("15", "R2", 185, 690).
link("38", "15").
streetOnRoute("24", "R2", 225, 765).
link("15", "24").
streetOnRoute("[22|59]", "R2", 240, 780).
link("24", "[22|59]").
streetOnRoute("(53cd|53[0]|53[1][0]|53[1][1][0]|77[1][0])", "R2", 255, 800).
link("[22|59]", "(53cd|53[0]|53[1][0]|53[1][1][0]|77[1][0])").
streetOnRoute("77[1][1]", "R2", 260, 810).
link("(53cd|53[0]|53[1][0]|53[1][1][0]|77[1][0])", "77[1][1]").
route("R3").
streetOnRoute("[210|43[0]]", "R3", 0, 0).
streetOnRoute("118", "R3", 65, 185).
link("[210|43[0]]", "118").
streetOnRoute("65", "R3", 80, 245).
link("118", "65").
streetOnRoute("57[0]", "R3", 90, 290).
link("65", "57[0]").
streetOnRoute("57[1]", "R3", 105, 375).
link("57[0]", "57[1]").
streetOnRoute("62", "R3", 110, 390).
link("57[1]", "62").
streetOnRoute("159", "R3", 130, 480).
link("62", "159").
streetOnRoute("42", "R3", 150, 535).
link("159", "42").
streetOnRoute("39", "R3", 155, 555).
link("42", "39").
streetOnRoute("35", "R3", 160, 575).
link("39", "35").
streetOnRoute("38", "R3", 170, 630).
link("35", "38").
streetOnRoute("33", "R3", 185, 690).
link("38", "33").
streetOnRoute("10", "R3", 195, 720).
link("33", "10").
streetOnRoute("[13|104]", "R3", 205, 765).
link("10", "[13|104]").
streetOnRoute("24", "R3", 240, 810).
link("[13|104]", "24").
streetOnRoute("[22|59]", "R3", 255, 825).
link("24", "[22|59]").
streetOnRoute("(53cd|53[0]|53[1][0]|53[1][1][0]|77[1][0])", "R3", 270, 845).
link("[22|59]", "(53cd|53[0]|53[1][0]|53[1][1][0]|77[1][0])").
streetOnRoute("77[1][1]", "R3", 275, 855).
link("(53cd|53[0]|53[1][0]|53[1][1][0]|77[1][0])", "77[1][1]").
route("R4").
streetOnRoute("[210|43[0]]", "R4", 0, 0).
streetOnRoute("118", "R4", 65, 185).
link("[210|43[0]]", "118").
streetOnRoute("65", "R4", 80, 245).
link("118", "65").
streetOnRoute("57[0]", "R4", 90, 290).
link("65", "57[0]").
streetOnRoute("57[1]", "R4", 105, 375).
link("57[0]", "57[1]").
streetOnRoute("62", "R4", 110, 390).
link("57[1]", "62").
streetOnRoute("159", "R4", 130, 480).
link("62", "159").
streetOnRoute("42", "R4", 150, 535).
link("159", "42").
streetOnRoute("39", "R4", 155, 555).
link("42", "39").
streetOnRoute("35", "R4", 160, 575).
link("39", "35").
streetOnRoute("38", "R4", 170, 630).
link("35", "38").
streetOnRoute("50", "R4", 185, 690).
link("38", "50").
streetOnRoute("19", "R4", 195, 705).
link("50", "19").
streetOnRoute("[22|59]", "R4", 205, 740).
link("19", "[22|59]").
streetOnRoute("(53cd|53[0])", "R4", 220, 760).
link("[22|59]", "(53cd|53[0])").
streetOnRoute("78[1][1]", "R4", 225, 780).
link("(53cd|53[0])", "78[1][1]").
streetOnRoute("[189[0]|189[1][0]+20000|189[1][1]]", "R4", 235, 790).
link("78[1][1]", "[189[0]|189[1][0]+20000|189[1][1]]").
streetOnRoute("191", "R4", 285, 840).
link("[189[0]|189[1][0]+20000|189[1][1]]", "191").
streetOnRoute("[17|71]", "R4", 330, 885).
link("191", "[17|71]").
streetOnRoute("67", "R4", 380, 935).
link("[17|71]", "67").
streetOnRoute("[80|127]", "R4", 390, 945).
link("67", "[80|127]").
streetOnRoute("(77[1][0])", "R4", 405, 960).
link("[80|127]", "(77[1][0])").
streetOnRoute("77[1][1]", "R4", 410, 965).
link("(77[1][0])", "77[1][1]").
route("R5").
streetOnRoute("[210|43[0]]", "R5", 0, 0).
streetOnRoute("118", "R5", 65, 185).
link("[210|43[0]]", "118").
streetOnRoute("65", "R5", 80, 245).
link("118", "65").
streetOnRoute("57[0]", "R5", 90, 290).
link("65", "57[0]").
streetOnRoute("57[1]", "R5", 105, 375).
link("57[0]", "57[1]").
streetOnRoute("62", "R5", 110, 390).
link("57[1]", "62").
streetOnRoute("159", "R5", 130, 480).
link("62", "159").
streetOnRoute("42", "R5", 150, 535).
link("159", "42").
streetOnRoute("39", "R5", 155, 555).
link("42", "39").
streetOnRoute("35", "R5", 160, 575).
link("39", "35").
streetOnRoute("38", "R5", 170, 630).
link("35", "38").
streetOnRoute("15", "R5", 185, 690).
link("38", "15").
streetOnRoute("24", "R5", 225, 765).
link("15", "24").
streetOnRoute("[22|59]", "R5", 240, 780).
link("24", "[22|59]").
streetOnRoute("(53cd|53[0])", "R5", 255, 800).
link("[22|59]", "(53cd|53[0])").
streetOnRoute("78[1][1]", "R5", 260, 820).
link("(53cd|53[0])", "78[1][1]").
streetOnRoute("[189[0]|189[1][0]+20000|189[1][1]]", "R5", 270, 830).
link("78[1][1]", "[189[0]|189[1][0]+20000|189[1][1]]").
streetOnRoute("191", "R5", 320, 880).
link("[189[0]|189[1][0]+20000|189[1][1]]", "191").
streetOnRoute("[17|71]", "R5", 365, 925).
link("191", "[17|71]").
streetOnRoute("67", "R5", 415, 975).
link("[17|71]", "67").
streetOnRoute("[80|127]", "R5", 425, 985).
link("67", "[80|127]").
streetOnRoute("(77[1][0])", "R5", 440, 1000).
link("[80|127]", "(77[1][0])").
streetOnRoute("77[1][1]", "R5", 445, 1005).
link("(77[1][0])", "77[1][1]").
route("R6").
streetOnRoute("[210|43[0]]", "R6", 0, 0).
streetOnRoute("118", "R6", 65, 185).
link("[210|43[0]]", "118").
streetOnRoute("65", "R6", 80, 245).
link("118", "65").
streetOnRoute("57[0]", "R6", 90, 290).
link("65", "57[0]").
streetOnRoute("57[1]", "R6", 105, 375).
link("57[0]", "57[1]").
streetOnRoute("62", "R6", 110, 390).
link("57[1]", "62").
streetOnRoute("159", "R6", 130, 480).
link("62", "159").
streetOnRoute("42", "R6", 150, 535).
link("159", "42").
streetOnRoute("39", "R6", 155, 555).
link("42", "39").
streetOnRoute("35", "R6", 160, 575).
link("39", "35").
streetOnRoute("38", "R6", 170, 630).
link("35", "38").
streetOnRoute("33", "R6", 185, 690).
link("38", "33").
streetOnRoute("10", "R6", 195, 720).
link("33", "10").
streetOnRoute("[13|104]", "R6", 205, 765).
link("10", "[13|104]").
streetOnRoute("24", "R6", 240, 810).
link("[13|104]", "24").
streetOnRoute("[22|59]", "R6", 255, 825).
link("24", "[22|59]").
streetOnRoute("(53cd|53[0])", "R6", 270, 845).
link("[22|59]", "(53cd|53[0])").
streetOnRoute("78[1][1]", "R6", 275, 865).
link("(53cd|53[0])", "78[1][1]").
streetOnRoute("[189[0]|189[1][0]+20000|189[1][1]]", "R6", 285, 875).
link("78[1][1]", "[189[0]|189[1][0]+20000|189[1][1]]").
streetOnRoute("191", "R6", 335, 925).
link("[189[0]|189[1][0]+20000|189[1][1]]", "191").
streetOnRoute("[17|71]", "R6", 380, 970).
link("191", "[17|71]").
streetOnRoute("67", "R6", 430, 1020).
link("[17|71]", "67").
streetOnRoute("[80|127]", "R6", 440, 1030).
link("67", "[80|127]").
streetOnRoute("(77[1][0])", "R6", 455, 1045).
link("[80|127]", "(77[1][0])").
streetOnRoute("77[1][1]", "R6", 460, 1050).
link("(77[1][0])", "77[1][1]").
route("R7").
streetOnRoute("201", "R7", 0, 0).
streetOnRoute("201c", "R7", 50, 1345).
link("201", "201c").
streetOnRoute("204a[0]", "R7", 85, 1380).
link("201c", "204a[0]").
streetOnRoute("124", "R7", 135, 1500).
link("204a[0]", "124").
route("R8").
streetOnRoute("[210|43[0]]", "R8", 0, 0).
streetOnRoute("118", "R8", 65, 185).
link("[210|43[0]]", "118").
streetOnRoute("65", "R8", 80, 245).
link("118", "65").
streetOnRoute("57[0]", "R8", 90, 290).
link("65", "57[0]").
streetOnRoute("57[1]", "R8", 105, 375).
link("57[0]", "57[1]").
streetOnRoute("62", "R8", 110, 390).
link("57[1]", "62").
streetOnRoute("159", "R8", 130, 480).
link("62", "159").
streetOnRoute("42", "R8", 150, 535).
link("159", "42").
streetOnRoute("39", "R8", 155, 555).
link("42", "39").
streetOnRoute("35", "R8", 160, 575).
link("39", "35").
streetOnRoute("38", "R8", 170, 630).
link("35", "38").
streetOnRoute("33", "R8", 185, 690).
link("38", "33").
streetOnRoute("10", "R8", 195, 720).
link("33", "10").
streetOnRoute("[13|104]", "R8", 205, 765).
link("10", "[13|104]").
streetOnRoute("24", "R8", 240, 810).
link("[13|104]", "24").
streetOnRoute("[22|59]", "R8", 255, 825).
link("24", "[22|59]").
streetOnRoute("(53cd|53[0]|53[1][0])", "R8", 270, 845).
link("[22|59]", "(53cd|53[0]|53[1][0])").
streetOnRoute("79", "R8", 275, 865).
link("(53cd|53[0]|53[1][0])", "79").
streetOnRoute("[68|11]", "R8", 290, 880).
link("79", "[68|11]").
streetOnRoute("84", "R8", 330, 920).
link("[68|11]", "84").
streetOnRoute("180", "R8", 345, 940).
link("84", "180").
route("R9").
streetOnRoute("161", "R9", 0, 0).
streetOnRoute("122", "R9", 20, 120).
link("161", "122").
streetOnRoute("1b", "R9", 40, 1370).
link("122", "1b").
streetOnRoute("1", "R9", 75, 2210).
link("1b", "1").
streetOnRoute("204a[0]", "R9", 110, 2245).
link("1", "204a[0]").
streetOnRoute("204b[0]", "R9", 160, 2365).
link("204a[0]", "204b[0]").
streetOnRoute("54", "R9", 165, 2370).
link("204b[0]", "54").
route("R10").
streetOnRoute("201", "R10", 0, 0).
streetOnRoute("201c", "R10", 50, 1345).
link("201", "201c").
streetOnRoute("204a[0]", "R10", 85, 1380).
link("201c", "204a[0]").
streetOnRoute("204b[0]", "R10", 135, 1500).
link("204a[0]", "204b[0]").
streetOnRoute("204[1][0]", "R10", 140, 1505).
link("204b[0]", "204[1][0]").
streetOnRoute("204[1][1]", "R10", 175, 1540).
link("204[1][0]", "204[1][1]").
route("R11").
streetOnRoute("43[1]", "R11", 0, 0).
streetOnRoute("201", "R11", 40, 175).
link("43[1]", "201").
streetOnRoute("201c", "R11", 90, 1385).
link("201", "201c").
streetOnRoute("204a[0]", "R11", 125, 1420).
link("201c", "204a[0]").
streetOnRoute("124", "R11", 175, 1540).
link("204a[0]", "124").
route("R12").
streetOnRoute("[210|43[0]]", "R12", 0, 0).
streetOnRoute("118", "R12", 65, 185).
link("[210|43[0]]", "118").
streetOnRoute("65", "R12", 80, 245).
link("118", "65").
streetOnRoute("57[0]", "R12", 90, 290).
link("65", "57[0]").
streetOnRoute("57[1]", "R12", 105, 375).
link("57[0]", "57[1]").
streetOnRoute("62", "R12", 110, 390).
link("57[1]", "62").
streetOnRoute("159", "R12", 130, 480).
link("62", "159").
streetOnRoute("42", "R12", 150, 535).
link("159", "42").
streetOnRoute("39", "R12", 155, 555).
link("42", "39").
streetOnRoute("35", "R12", 160, 575).
link("39", "35").
streetOnRoute("38", "R12", 170, 630).
link("35", "38").
streetOnRoute("15", "R12", 185, 690).
link("38", "15").
streetOnRoute("24", "R12", 225, 765).
link("15", "24").
streetOnRoute("[22|59]", "R12", 240, 780).
link("24", "[22|59]").
streetOnRoute("(53cd|53[0]|53[1][0])", "R12", 255, 800).
link("[22|59]", "(53cd|53[0]|53[1][0])").
streetOnRoute("79", "R12", 260, 820).
link("(53cd|53[0]|53[1][0])", "79").
streetOnRoute("[68|11]", "R12", 275, 835).
link("79", "[68|11]").
streetOnRoute("84", "R12", 315, 875).
link("[68|11]", "84").
streetOnRoute("180", "R12", 330, 895).
link("84", "180").
route("R13").
streetOnRoute("159", "R13", 0, 0).
streetOnRoute("42", "R13", 20, 80).
link("159", "42").
streetOnRoute("39", "R13", 25, 100).
link("42", "39").
streetOnRoute("35", "R13", 30, 120).
link("39", "35").
streetOnRoute("38", "R13", 40, 175).
link("35", "38").
streetOnRoute("50", "R13", 55, 235).
link("38", "50").
streetOnRoute("19", "R13", 65, 250).
link("50", "19").
streetOnRoute("[22|59]", "R13", 75, 285).
link("19", "[22|59]").
streetOnRoute("(53cd|53[0]|53[1][0])", "R13", 90, 305).
link("[22|59]", "(53cd|53[0]|53[1][0])").
streetOnRoute("79", "R13", 95, 325).
link("(53cd|53[0]|53[1][0])", "79").
streetOnRoute("[68|11]", "R13", 110, 340).
link("79", "[68|11]").
streetOnRoute("84", "R13", 150, 380).
link("[68|11]", "84").
streetOnRoute("180", "R13", 165, 400).
link("84", "180").
route("R14").
streetOnRoute("224[1]", "R14", 0, 0).
streetOnRoute("[181|18]", "R14", 15, 90).
link("224[1]", "[181|18]").
streetOnRoute("[17|71]", "R14", 55, 165).
link("[181|18]", "[17|71]").
streetOnRoute("67", "R14", 105, 220).
link("[17|71]", "67").
streetOnRoute("[80|127]", "R14", 115, 235).
link("67", "[80|127]").
streetOnRoute("(77[1][0])", "R14", 130, 270).
link("[80|127]", "(77[1][0])").
streetOnRoute("77[1][1]", "R14", 135, 290).
link("(77[1][0])", "77[1][1]").
route("R15").
streetOnRoute("204a[0]", "R15", 0, 0).
streetOnRoute("124", "R15", 50, 860).
link("204a[0]", "124").
route("R16").
streetOnRoute("[22|59]", "R16", 0, 0).
streetOnRoute("(53cd|53[0]|53[1][0])", "R16", 15, 55).
link("[22|59]", "(53cd|53[0]|53[1][0])").
streetOnRoute("79", "R16", 20, 75).
link("(53cd|53[0]|53[1][0])", "79").
streetOnRoute("[68|11]", "R16", 35, 90).
link("79", "[68|11]").
streetOnRoute("86", "R16", 75, 135).
link("[68|11]", "86").
route("R17").
streetOnRoute("[116|46]", "R17", 0, 0).
streetOnRoute("113", "R17", 45, 50).
link("[116|46]", "113").
streetOnRoute("209", "R17", 85, 100).
link("113", "209").
route("R18").
streetOnRoute("186", "R18", 0, 0).
streetOnRoute("[109[0]|109[1][0]+20003|109[1][1]]", "R18", 5, 75).
link("186", "[109[0]|109[1][0]+20003|109[1][1]]").
streetOnRoute("[116|46]", "R18", 15, 110).
link("[109[0]|109[1][0]+20003|109[1][1]]", "[116|46]").
streetOnRoute("113", "R18", 60, 160).
link("[116|46]", "113").
streetOnRoute("209", "R18", 100, 210).
link("113", "209").
route("R19").
streetOnRoute("224[0]", "R19", 0, 0).
streetOnRoute("224[1]", "R19", 25, 145).
link("224[0]", "224[1]").
streetOnRoute("[181|18]", "R19", 40, 205).
link("224[1]", "[181|18]").
streetOnRoute("[17|71]", "R19", 80, 280).
link("[181|18]", "[17|71]").
streetOnRoute("67", "R19", 130, 335).
link("[17|71]", "67").
streetOnRoute("[80|127]", "R19", 140, 350).
link("67", "[80|127]").
streetOnRoute("(77[1][0])", "R19", 155, 385).
link("[80|127]", "(77[1][0])").
streetOnRoute("77[1][1]", "R19", 160, 405).
link("(77[1][0])", "77[1][1]").
route("R20").
streetOnRoute("[210|43[0]]", "R20", 0, 0).
streetOnRoute("118", "R20", 65, 185).
link("[210|43[0]]", "118").
streetOnRoute("65", "R20", 80, 245).
link("118", "65").
streetOnRoute("57[0]", "R20", 90, 290).
link("65", "57[0]").
streetOnRoute("57[1]", "R20", 105, 375).
link("57[0]", "57[1]").
streetOnRoute("62", "R20", 110, 390).
link("57[1]", "62").
streetOnRoute("159", "R20", 130, 480).
link("62", "159").
streetOnRoute("42", "R20", 150, 535).
link("159", "42").
streetOnRoute("39", "R20", 155, 555).
link("42", "39").
streetOnRoute("35", "R20", 160, 575).
link("39", "35").
streetOnRoute("38", "R20", 170, 630).
link("35", "38").
streetOnRoute("50", "R20", 185, 690).
link("38", "50").
streetOnRoute("19", "R20", 195, 705).
link("50", "19").
streetOnRoute("[22|59]", "R20", 205, 740).
link("19", "[22|59]").
streetOnRoute("(53cd|53[0]|53[1][0])", "R20", 220, 760).
link("[22|59]", "(53cd|53[0]|53[1][0])").
streetOnRoute("79", "R20", 225, 780).
link("(53cd|53[0]|53[1][0])", "79").
streetOnRoute("[68|11]", "R20", 240, 795).
link("79", "[68|11]").
streetOnRoute("84", "R20", 280, 835).
link("[68|11]", "84").
streetOnRoute("180", "R20", 295, 855).
link("84", "180").
route("R21").
streetOnRoute("[181|18]", "R21", 0, 0).
streetOnRoute("[17|71]", "R21", 40, 75).
link("[181|18]", "[17|71]").
streetOnRoute("86", "R21", 90, 130).
link("[17|71]", "86").
route("R22").
streetOnRoute("[210|43[0]]", "R22", 0, 0).
streetOnRoute("118", "R22", 65, 185).
link("[210|43[0]]", "118").
streetOnRoute("65", "R22", 80, 245).
link("118", "65").
streetOnRoute("57[0]", "R22", 90, 290).
link("65", "57[0]").
streetOnRoute("57[1]", "R22", 105, 375).
link("57[0]", "57[1]").
streetOnRoute("62", "R22", 110, 390).
link("57[1]", "62").
streetOnRoute("159", "R22", 130, 480).
link("62", "159").
streetOnRoute("42", "R22", 150, 535).
link("159", "42").
streetOnRoute("39", "R22", 155, 555).
link("42", "39").
streetOnRoute("35", "R22", 160, 575).
link("39", "35").
streetOnRoute("38", "R22", 170, 630).
link("35", "38").
streetOnRoute("15", "R22", 185, 690).
link("38", "15").
streetOnRoute("14", "R22", 225, 765).
link("15", "14").
route("R23").
streetOnRoute("74", "R23", 0, 0).
streetOnRoute("72[1]", "R23", 55, 895).
link("74", "72[1]").
streetOnRoute("69", "R23", 90, 935).
link("72[1]", "69").
streetOnRoute("161", "R23", 135, 1030).
link("69", "161").
streetOnRoute("122", "R23", 155, 1055).
link("161", "122").
streetOnRoute("1b", "R23", 175, 1540).
link("122", "1b").
streetOnRoute("1", "R23", 210, 2380).
link("1b", "1").
streetOnRoute("204a[0]", "R23", 245, 2415).
link("1", "204a[0]").
streetOnRoute("204b[0]", "R23", 295, 2535).
link("204a[0]", "204b[0]").
streetOnRoute("54", "R23", 300, 2540).
link("204b[0]", "54").
route("R24").
streetOnRoute("72[0]", "R24", 0, 0).
streetOnRoute("72[1]", "R24", 45, 885).
link("72[0]", "72[1]").
streetOnRoute("69", "R24", 80, 925).
link("72[1]", "69").
streetOnRoute("161", "R24", 125, 1020).
link("69", "161").
streetOnRoute("122", "R24", 145, 1045).
link("161", "122").
streetOnRoute("1b", "R24", 165, 1530).
link("122", "1b").
streetOnRoute("1", "R24", 200, 2370).
link("1b", "1").
streetOnRoute("204a[0]", "R24", 235, 2405).
link("1", "204a[0]").
streetOnRoute("204b[0]", "R24", 285, 2525).
link("204a[0]", "204b[0]").
streetOnRoute("204[1][0]", "R24", 290, 2530).
link("204b[0]", "204[1][0]").
streetOnRoute("204[1][1]", "R24", 325, 2565).
link("204[1][0]", "204[1][1]").
route("R25").
streetOnRoute("85", "R25", 0, 0).
streetOnRoute("72[0]", "R25", 60, 60).
link("85", "72[0]").
streetOnRoute("72[1]", "R25", 105, 825).
link("72[0]", "72[1]").
streetOnRoute("69", "R25", 140, 865).
link("72[1]", "69").
streetOnRoute("161", "R25", 185, 960).
link("69", "161").
streetOnRoute("194", "R25", 205, 985).
link("161", "194").
streetOnRoute("91", "R25", 220, 1000).
link("194", "91").
streetOnRoute("186", "R25", 225, 1020).
link("91", "186").
streetOnRoute("[109[0]|109[1][0]+20003|109[1][1]]", "R25", 230, 1050).
link("186", "[109[0]|109[1][0]+20003|109[1][1]]").
streetOnRoute("[116|46]", "R25", 240, 1060).
link("[109[0]|109[1][0]+20003|109[1][1]]", "[116|46]").
streetOnRoute("201", "R25", 285, 1105).
link("[116|46]", "201").
streetOnRoute("201c", "R25", 335, 1155).
link("201", "201c").
streetOnRoute("204a[0]", "R25", 370, 1190).
link("201c", "204a[0]").
streetOnRoute("204b[0]", "R25", 420, 1270).
link("204a[0]", "204b[0]").
streetOnRoute("204[1][0]", "R25", 425, 1275).
link("204b[0]", "204[1][0]").
streetOnRoute("204[1][1]", "R25", 460, 1310).
link("204[1][0]", "204[1][1]").
route("R26").
streetOnRoute("35", "R26", 0, 0).
streetOnRoute("38", "R26", 10, 70).
link("35", "38").
streetOnRoute("50", "R26", 25, 130).
link("38", "50").
streetOnRoute("19", "R26", 35, 145).
link("50", "19").
streetOnRoute("[22|59]", "R26", 45, 180).
link("19", "[22|59]").
streetOnRoute("(53cd|53[0]|53[1][0]|53[1][1][0]|77[1][0])", "R26", 60, 200).
link("[22|59]", "(53cd|53[0]|53[1][0]|53[1][1][0]|77[1][0])").
streetOnRoute("77[1][1]", "R26", 65, 210).
link("(53cd|53[0]|53[1][0]|53[1][1][0]|77[1][0])", "77[1][1]").
route("R27").
streetOnRoute("91", "R27", 0, 0).
streetOnRoute("186", "R27", 5, 95).
link("91", "186").
streetOnRoute("[109[0]|109[1][0]+20003|109[1][1]]", "R27", 10, 125).
link("186", "[109[0]|109[1][0]+20003|109[1][1]]").
streetOnRoute("120", "R27", 20, 160).
link("[109[0]|109[1][0]+20003|109[1][1]]", "120").
streetOnRoute("117", "R27", 35, 175).
link("120", "117").
streetOnRoute("209", "R27", 80, 240).
link("117", "209").
route("R28").
streetOnRoute("161", "R28", 0, 0).
streetOnRoute("122", "R28", 20, 120).
link("161", "122").
streetOnRoute("1b", "R28", 40, 1370).
link("122", "1b").
streetOnRoute("1", "R28", 75, 2210).
link("1b", "1").
streetOnRoute("204a[0]", "R28", 110, 2245).
link("1", "204a[0]").
streetOnRoute("204b[0]", "R28", 160, 2365).
link("204a[0]", "204b[0]").
streetOnRoute("204[1][0]", "R28", 165, 2370).
link("204b[0]", "204[1][0]").
streetOnRoute("204[1][1]", "R28", 200, 2405).
link("204[1][0]", "204[1][1]").
route("R29").
streetOnRoute("131", "R29", 0, 0).
streetOnRoute("65", "R29", 30, 75).
link("131", "65").
streetOnRoute("57[0]", "R29", 40, 120).
link("65", "57[0]").
streetOnRoute("57[1]", "R29", 55, 205).
link("57[0]", "57[1]").
streetOnRoute("62", "R29", 60, 220).
link("57[1]", "62").
streetOnRoute("159", "R29", 80, 310).
link("62", "159").
streetOnRoute("42", "R29", 100, 365).
link("159", "42").
streetOnRoute("39", "R29", 105, 385).
link("42", "39").
streetOnRoute("35", "R29", 110, 405).
link("39", "35").
streetOnRoute("38", "R29", 120, 460).
link("35", "38").
streetOnRoute("50", "R29", 135, 520).
link("38", "50").
streetOnRoute("19", "R29", 145, 535).
link("50", "19").
streetOnRoute("[22|59]", "R29", 155, 570).
link("19", "[22|59]").
streetOnRoute("(53cd|53[0]|53[1][0])", "R29", 170, 590).
link("[22|59]", "(53cd|53[0]|53[1][0])").
streetOnRoute("79", "R29", 175, 610).
link("(53cd|53[0]|53[1][0])", "79").
streetOnRoute("[68|11]", "R29", 190, 625).
link("79", "[68|11]").
streetOnRoute("86", "R29", 230, 665).
link("[68|11]", "86").
route("R30").
streetOnRoute("[210|43[0]]", "R30", 0, 0).
streetOnRoute("118", "R30", 65, 185).
link("[210|43[0]]", "118").
streetOnRoute("65", "R30", 80, 245).
link("118", "65").
streetOnRoute("57[0]", "R30", 90, 290).
link("65", "57[0]").
streetOnRoute("57[1]", "R30", 105, 375).
link("57[0]", "57[1]").
streetOnRoute("62", "R30", 110, 390).
link("57[1]", "62").
streetOnRoute("159", "R30", 130, 480).
link("62", "159").
streetOnRoute("42", "R30", 150, 535).
link("159", "42").
streetOnRoute("39", "R30", 155, 555).
link("42", "39").
streetOnRoute("35", "R30", 160, 575).
link("39", "35").
streetOnRoute("38", "R30", 170, 630).
link("35", "38").
streetOnRoute("33", "R30", 185, 690).
link("38", "33").
streetOnRoute("10", "R30", 195, 720).
link("33", "10").
route("R31").
streetOnRoute("224[0]", "R31", 0, 0).
streetOnRoute("224[1]", "R31", 25, 145).
link("224[0]", "224[1]").
streetOnRoute("[181|18]", "R31", 40, 205).
link("224[1]", "[181|18]").
streetOnRoute("[17|71]", "R31", 80, 280).
link("[181|18]", "[17|71]").
streetOnRoute("67", "R31", 130, 335).
link("[17|71]", "67").
streetOnRoute("[80|127]", "R31", 140, 350).
link("67", "[80|127]").
streetOnRoute("(77[1][0]|77ab|77bc|77cd|53cd|53[0])", "R31", 155, 385).
link("[80|127]", "(77[1][0]|77ab|77bc|77cd|53cd|53[0])").
streetOnRoute("78[1][1]", "R31", 160, 390).
link("(77[1][0]|77ab|77bc|77cd|53cd|53[0])", "78[1][1]").
streetOnRoute("[189[0]|189[1][0]+20000|189[1][1]]", "R31", 170, 400).
link("78[1][1]", "[189[0]|189[1][0]+20000|189[1][1]]").
streetOnRoute("188", "R31", 220, 450).
link("[189[0]|189[1][0]+20000|189[1][1]]", "188").
streetOnRoute("[87[0]|20001+87[1][0]|87[1][1]]", "R31", 260, 490).
link("188", "[87[0]|20001+87[1][0]|87[1][1]]").
streetOnRoute("m90", "R31", 265, 495).
link("[87[0]|20001+87[1][0]|87[1][1]]", "m90").
streetOnRoute("[89[0]|20002+89[1][0]|89[1][1]]", "R31", 270, 510).
link("m90", "[89[0]|20002+89[1][0]|89[1][1]]").
streetOnRoute("91", "R31", 285, 525).
link("[89[0]|20002+89[1][0]|89[1][1]]", "91").
streetOnRoute("186", "R31", 290, 545).
link("91", "186").
streetOnRoute("[109[0]|109[1][0]+20003|109[1][1]]", "R31", 295, 575).
link("186", "[109[0]|109[1][0]+20003|109[1][1]]").
streetOnRoute("[116|46]", "R31", 305, 585).
link("[109[0]|109[1][0]+20003|109[1][1]]", "[116|46]").
streetOnRoute("201", "R31", 350, 630).
link("[116|46]", "201").
streetOnRoute("201c", "R31", 400, 680).
link("201", "201c").
streetOnRoute("204a[0]", "R31", 435, 715).
link("201c", "204a[0]").
streetOnRoute("204b[0]", "R31", 485, 1245).
link("204a[0]", "204b[0]").
streetOnRoute("204[1][0]", "R31", 490, 1260).
link("204b[0]", "204[1][0]").
streetOnRoute("204[1][1]", "R31", 525, 1295).
link("204[1][0]", "204[1][1]").
route("R32").
streetOnRoute("[181|18]", "R32", 0, 0).
streetOnRoute("69", "R32", 40, 325).
link("[181|18]", "69").
streetOnRoute("161", "R32", 85, 420).
link("69", "161").
streetOnRoute("122", "R32", 105, 445).
link("161", "122").
streetOnRoute("1b", "R32", 125, 1455).
link("122", "1b").
streetOnRoute("1", "R32", 160, 2295).
link("1b", "1").
streetOnRoute("204a[0]", "R32", 195, 2330).
link("1", "204a[0]").
streetOnRoute("204b[0]", "R32", 245, 2450).
link("204a[0]", "204b[0]").
streetOnRoute("204[1][0]", "R32", 250, 2455).
link("204b[0]", "204[1][0]").
streetOnRoute("204[1][1]", "R32", 285, 2490).
link("204[1][0]", "204[1][1]").
route("R33").
streetOnRoute("224[0]", "R33", 0, 0).
streetOnRoute("224[1]", "R33", 25, 145).
link("224[0]", "224[1]").
streetOnRoute("[181|18]", "R33", 40, 205).
link("224[1]", "[181|18]").
streetOnRoute("[17|71]", "R33", 80, 280).
link("[181|18]", "[17|71]").
streetOnRoute("86", "R33", 130, 335).
link("[17|71]", "86").
route("R34").
streetOnRoute("[17|71]", "R34", 0, 0).
streetOnRoute("67", "R34", 50, 55).
link("[17|71]", "67").
streetOnRoute("[80|127]", "R34", 60, 70).
link("67", "[80|127]").
streetOnRoute("(77[1][0])", "R34", 75, 105).
link("[80|127]", "(77[1][0])").
streetOnRoute("77[1][1]", "R34", 80, 125).
link("(77[1][0])", "77[1][1]").
route("R35").
streetOnRoute("69", "R35", 0, 0).
streetOnRoute("161", "R35", 45, 95).
link("69", "161").
streetOnRoute("122", "R35", 65, 120).
link("161", "122").
streetOnRoute("1b", "R35", 85, 1415).
link("122", "1b").
streetOnRoute("1", "R35", 120, 2255).
link("1b", "1").
streetOnRoute("204a[0]", "R35", 155, 2290).
link("1", "204a[0]").
streetOnRoute("204b[0]", "R35", 205, 2410).
link("204a[0]", "204b[0]").
streetOnRoute("204[1][0]", "R35", 210, 2415).
link("204b[0]", "204[1][0]").
streetOnRoute("204[1][1]", "R35", 245, 2450).
link("204[1][0]", "204[1][1]").
route("R36").
streetOnRoute("85", "R36", 0, 0).
streetOnRoute("72[0]", "R36", 60, 60).
link("85", "72[0]").
streetOnRoute("72[1]", "R36", 105, 825).
link("72[0]", "72[1]").
streetOnRoute("69", "R36", 140, 865).
link("72[1]", "69").
streetOnRoute("161", "R36", 185, 960).
link("69", "161").
streetOnRoute("122", "R36", 205, 985).
link("161", "122").
streetOnRoute("1b", "R36", 225, 1940).
link("122", "1b").
streetOnRoute("1", "R36", 260, 2780).
link("1b", "1").
streetOnRoute("204a[0]", "R36", 295, 2815).
link("1", "204a[0]").
streetOnRoute("124", "R36", 345, 2935).
link("204a[0]", "124").
route("R37").
streetOnRoute("122", "R37", 0, 0).
streetOnRoute("[3|2]", "R37", 20, 100).
link("122", "[3|2]").
streetOnRoute("[202|34]", "R37", 55, 140).
link("[3|2]", "[202|34]").
streetOnRoute("134", "R37", 105, 190).
link("[202|34]", "134").
route("R38").
streetOnRoute("[200|60]", "R38", 0, 0).
route("R39").
streetOnRoute("85", "R39", 0, 0).
streetOnRoute("72[0]", "R39", 60, 60).
link("85", "72[0]").
streetOnRoute("72[1]", "R39", 105, 825).
link("72[0]", "72[1]").
streetOnRoute("69", "R39", 140, 865).
link("72[1]", "69").
streetOnRoute("161", "R39", 185, 960).
link("69", "161").
streetOnRoute("122", "R39", 205, 985).
link("161", "122").
streetOnRoute("1b", "R39", 225, 1940).
link("122", "1b").
streetOnRoute("1", "R39", 260, 2780).
link("1b", "1").
streetOnRoute("204a[0]", "R39", 295, 2815).
link("1", "204a[0]").
streetOnRoute("204b[0]", "R39", 345, 2935).
link("204a[0]", "204b[0]").
streetOnRoute("204[1][0]", "R39", 350, 2940).
link("204b[0]", "204[1][0]").
streetOnRoute("204[1][1]", "R39", 385, 2975).
link("204[1][0]", "204[1][1]").
route("R40").
streetOnRoute("[189[0]|189[1][0]+20000|189[1][1]]", "R40", 0, 0).
streetOnRoute("191", "R40", 50, 55).
link("[189[0]|189[1][0]+20000|189[1][1]]", "191").
streetOnRoute("[17|71]", "R40", 95, 100).
link("191", "[17|71]").
streetOnRoute("84", "R40", 145, 155).
link("[17|71]", "84").
streetOnRoute("180", "R40", 160, 175).
link("84", "180").
route("R41").
streetOnRoute("117", "R41", 0, 0).
streetOnRoute("209", "R41", 45, 65).
link("117", "209").
route("R42").
streetOnRoute("204a[0]", "R42", 0, 0).
streetOnRoute("204b[0]", "R42", 50, 600).
link("204a[0]", "204b[0]").
streetOnRoute("204[1][0]", "R42", 55, 615).
link("204b[0]", "204[1][0]").
streetOnRoute("204[1][1]", "R42", 90, 650).
link("204[1][0]", "204[1][1]").
route("R43").
streetOnRoute("15", "R43", 0, 0).
streetOnRoute("24", "R43", 40, 75).
link("15", "24").
streetOnRoute("[22|59]", "R43", 55, 90).
link("24", "[22|59]").
streetOnRoute("(53cd|53[0]|53[1][0])", "R43", 70, 110).
link("[22|59]", "(53cd|53[0]|53[1][0])").
streetOnRoute("79", "R43", 75, 130).
link("(53cd|53[0]|53[1][0])", "79").
streetOnRoute("[68|11]", "R43", 90, 145).
link("79", "[68|11]").
streetOnRoute("86", "R43", 130, 185).
link("[68|11]", "86").
route("R44").
streetOnRoute("161", "R44", 0, 0).
streetOnRoute("122", "R44", 20, 120).
link("161", "122").
streetOnRoute("1b", "R44", 40, 1370).
link("122", "1b").
streetOnRoute("1", "R44", 75, 2210).
link("1b", "1").
streetOnRoute("204a[0]", "R44", 110, 2245).
link("1", "204a[0]").
streetOnRoute("124", "R44", 160, 2365).
link("204a[0]", "124").
route("R45").
streetOnRoute("118", "R45", 0, 0).
streetOnRoute("65", "R45", 15, 60).
link("118", "65").
streetOnRoute("57[0]", "R45", 25, 105).
link("65", "57[0]").
streetOnRoute("57[1]", "R45", 40, 190).
link("57[0]", "57[1]").
streetOnRoute("62", "R45", 45, 205).
link("57[1]", "62").
streetOnRoute("159", "R45", 65, 295).
link("62", "159").
streetOnRoute("42", "R45", 85, 350).
link("159", "42").
streetOnRoute("39", "R45", 90, 370).
link("42", "39").
streetOnRoute("35", "R45", 95, 390).
link("39", "35").
streetOnRoute("38", "R45", 105, 445).
link("35", "38").
streetOnRoute("15", "R45", 120, 505).
link("38", "15").
streetOnRoute("14", "R45", 160, 580).
link("15", "14").
route("R46").
streetOnRoute("15", "R46", 0, 0).
streetOnRoute("14", "R46", 40, 80).
link("15", "14").
route("R47").
streetOnRoute("[181|18]", "R47", 0, 0).
streetOnRoute("[17|71]", "R47", 40, 75).
link("[181|18]", "[17|71]").
streetOnRoute("67", "R47", 90, 130).
link("[17|71]", "67").
streetOnRoute("[80|127]", "R47", 100, 145).
link("67", "[80|127]").
streetOnRoute("(77[1][0])", "R47", 115, 180).
link("[80|127]", "(77[1][0])").
streetOnRoute("77[1][1]", "R47", 120, 200).
link("(77[1][0])", "77[1][1]").
route("R48").
streetOnRoute("159", "R48", 0, 0).
streetOnRoute("42", "R48", 20, 80).
link("159", "42").
streetOnRoute("39", "R48", 25, 100).
link("42", "39").
streetOnRoute("35", "R48", 30, 120).
link("39", "35").
streetOnRoute("38", "R48", 40, 175).
link("35", "38").
streetOnRoute("50", "R48", 55, 235).
link("38", "50").
streetOnRoute("19", "R48", 65, 250).
link("50", "19").
streetOnRoute("[22|59]", "R48", 75, 285).
link("19", "[22|59]").
streetOnRoute("(53cd|53[0]|53[1][0]|53[1][1][0]|77[1][0])", "R48", 90, 305).
link("[22|59]", "(53cd|53[0]|53[1][0]|53[1][1][0]|77[1][0])").
streetOnRoute("77[1][1]", "R48", 95, 315).
link("(53cd|53[0]|53[1][0]|53[1][1][0]|77[1][0])", "77[1][1]").
route("R49").
streetOnRoute("224[1]", "R49", 0, 0).
streetOnRoute("[181|18]", "R49", 15, 90).
link("224[1]", "[181|18]").
streetOnRoute("[17|71]", "R49", 55, 165).
link("[181|18]", "[17|71]").
streetOnRoute("86", "R49", 105, 220).
link("[17|71]", "86").
route("R50").
streetOnRoute("118", "R50", 0, 0).
streetOnRoute("65", "R50", 15, 60).
link("118", "65").
streetOnRoute("[200|60]", "R50", 25, 105).
link("65", "[200|60]").
route("R51").
streetOnRoute("72[1]", "R51", 0, 160).
streetOnRoute("69", "R51", 35, 320).
link("72[1]", "69").
streetOnRoute("161", "R51", 80, 415).
link("69", "161").
streetOnRoute("122", "R51", 100, 440).
link("161", "122").
streetOnRoute("1b", "R51", 120, 1450).
link("122", "1b").
streetOnRoute("1", "R51", 155, 2290).
link("1b", "1").
streetOnRoute("204a[0]", "R51", 190, 2325).
link("1", "204a[0]").
streetOnRoute("204b[0]", "R51", 240, 2445).
link("204a[0]", "204b[0]").
streetOnRoute("54", "R51", 245, 2450).
link("204b[0]", "54").
route("R52").
streetOnRoute("122", "R52", 0, 0).
streetOnRoute("1b", "R52", 20, 1350).
link("122", "1b").
streetOnRoute("1", "R52", 55, 2190).
link("1b", "1").
streetOnRoute("204a[0]", "R52", 90, 2225).
link("1", "204a[0]").
streetOnRoute("204b[0]", "R52", 140, 2345).
link("204a[0]", "204b[0]").
streetOnRoute("54", "R52", 145, 2350).
link("204b[0]", "54").
route("R53").
streetOnRoute("[189[0]|189[1][0]+20000|189[1][1]]", "R53", 0, 0).
streetOnRoute("188", "R53", 50, 55).
link("[189[0]|189[1][0]+20000|189[1][1]]", "188").
streetOnRoute("[87[0]|20001+87[1][0]|87[1][1]]", "R53", 90, 110).
link("188", "[87[0]|20001+87[1][0]|87[1][1]]").
streetOnRoute("m90", "R53", 95, 130).
link("[87[0]|20001+87[1][0]|87[1][1]]", "m90").
streetOnRoute("[89[0]|20002+89[1][0]|89[1][1]]", "R53", 100, 145).
link("m90", "[89[0]|20002+89[1][0]|89[1][1]]").
streetOnRoute("91", "R53", 115, 160).
link("[89[0]|20002+89[1][0]|89[1][1]]", "91").
streetOnRoute("186", "R53", 120, 180).
link("91", "186").
streetOnRoute("[109[0]|109[1][0]+20003|109[1][1]]", "R53", 125, 210).
link("186", "[109[0]|109[1][0]+20003|109[1][1]]").
streetOnRoute("[116|46]", "R53", 135, 220).
link("[109[0]|109[1][0]+20003|109[1][1]]", "[116|46]").
streetOnRoute("113", "R53", 180, 265).
link("[116|46]", "113").
streetOnRoute("209", "R53", 220, 305).
link("113", "209").
route("R54").
streetOnRoute("85", "R54", 0, 0).
streetOnRoute("72[0]", "R54", 60, 60).
link("85", "72[0]").
streetOnRoute("72[1]", "R54", 105, 825).
link("72[0]", "72[1]").
streetOnRoute("69", "R54", 140, 865).
link("72[1]", "69").
streetOnRoute("161", "R54", 185, 960).
link("69", "161").
streetOnRoute("122", "R54", 205, 985).
link("161", "122").
streetOnRoute("1b", "R54", 225, 1940).
link("122", "1b").
streetOnRoute("1", "R54", 260, 2780).
link("1b", "1").
streetOnRoute("204a[0]", "R54", 295, 2815).
link("1", "204a[0]").
streetOnRoute("204b[0]", "R54", 345, 2935).
link("204a[0]", "204b[0]").
streetOnRoute("54", "R54", 350, 2940).
link("204b[0]", "54").
route("R55").
streetOnRoute("209", "R55", 0, 0).
route("R56").
streetOnRoute("122", "R56", 0, 0).
streetOnRoute("1b", "R56", 20, 1350).
link("122", "1b").
streetOnRoute("1", "R56", 55, 2190).
link("1b", "1").
streetOnRoute("204a[0]", "R56", 90, 2225).
link("1", "204a[0]").
streetOnRoute("204b[0]", "R56", 140, 2345).
link("204a[0]", "204b[0]").
streetOnRoute("204[1][0]", "R56", 145, 2350).
link("204b[0]", "204[1][0]").
streetOnRoute("204[1][1]", "R56", 180, 2385).
link("204[1][0]", "204[1][1]").
route("R57").
streetOnRoute("65", "R57", 0, 0).
streetOnRoute("57[0]", "R57", 10, 45).
link("65", "57[0]").
streetOnRoute("57[1]", "R57", 25, 130).
link("57[0]", "57[1]").
streetOnRoute("62", "R57", 30, 145).
link("57[1]", "62").
streetOnRoute("159", "R57", 50, 235).
link("62", "159").
streetOnRoute("42", "R57", 70, 290).
link("159", "42").
streetOnRoute("39", "R57", 75, 310).
link("42", "39").
streetOnRoute("35", "R57", 80, 330).
link("39", "35").
streetOnRoute("38", "R57", 90, 385).
link("35", "38").
streetOnRoute("50", "R57", 105, 445).
link("38", "50").
streetOnRoute("19", "R57", 115, 460).
link("50", "19").
streetOnRoute("[22|59]", "R57", 125, 495).
link("19", "[22|59]").
streetOnRoute("(53cd|53[0])", "R57", 140, 515).
link("[22|59]", "(53cd|53[0])").
streetOnRoute("78[1][1]", "R57", 145, 535).
link("(53cd|53[0])", "78[1][1]").
streetOnRoute("[189[0]|189[1][0]+20000|189[1][1]]", "R57", 155, 545).
link("78[1][1]", "[189[0]|189[1][0]+20000|189[1][1]]").
streetOnRoute("191", "R57", 205, 595).
link("[189[0]|189[1][0]+20000|189[1][1]]", "191").
streetOnRoute("[17|71]", "R57", 250, 640).
link("191", "[17|71]").
streetOnRoute("84", "R57", 300, 695).
link("[17|71]", "84").
streetOnRoute("180", "R57", 315, 715).
link("84", "180").
route("R58").
streetOnRoute("[13|104]", "R58", 0, 0).
streetOnRoute("16", "R58", 35, 45).
link("[13|104]", "16").
streetOnRoute("37", "R58", 45, 55).
link("16", "37").
streetOnRoute("36", "R58", 60, 70).
link("37", "36").
streetOnRoute("40", "R58", 70, 80).
link("36", "40").
streetOnRoute("41", "R58", 75, 85).
link("40", "41").
streetOnRoute("160", "R58", 80, 90).
link("41", "160").
streetOnRoute("61", "R58", 100, 110).
link("160", "61").
streetOnRoute("58[0]", "R58", 120, 130).
link("61", "58[0]").
streetOnRoute("58[1]", "R58", 125, 135).
link("58[0]", "58[1]").
streetOnRoute("66", "R58", 140, 150).
link("58[1]", "66").
streetOnRoute("117", "R58", 150, 160).
link("66", "117").
streetOnRoute("209", "R58", 195, 210).
link("117", "209").
route("R59").
streetOnRoute("[68|11]", "R59", 0, 0).
streetOnRoute("84", "R59", 40, 45).
link("[68|11]", "84").
streetOnRoute("180", "R59", 55, 65).
link("84", "180").
route("R60").
streetOnRoute("65", "R60", 0, 0).
streetOnRoute("57[0]", "R60", 10, 45).
link("65", "57[0]").
streetOnRoute("57[1]", "R60", 25, 130).
link("57[0]", "57[1]").
streetOnRoute("62", "R60", 30, 145).
link("57[1]", "62").
streetOnRoute("159", "R60", 50, 235).
link("62", "159").
streetOnRoute("42", "R60", 70, 290).
link("159", "42").
streetOnRoute("39", "R60", 75, 310).
link("42", "39").
streetOnRoute("35", "R60", 80, 330).
link("39", "35").
streetOnRoute("38", "R60", 90, 385).
link("35", "38").
streetOnRoute("33", "R60", 105, 445).
link("38", "33").
streetOnRoute("10", "R60", 115, 475).
link("33", "10").
route("R61").
streetOnRoute("38", "R61", 0, 0).
streetOnRoute("15", "R61", 15, 165).
link("38", "15").
streetOnRoute("14", "R61", 55, 240).
link("15", "14").
route("R62").
streetOnRoute("224[0]", "R62", 0, 0).
streetOnRoute("224[1]", "R62", 25, 145).
link("224[0]", "224[1]").
streetOnRoute("[181|18]", "R62", 40, 205).
link("224[1]", "[181|18]").
streetOnRoute("69", "R62", 80, 365).
link("[181|18]", "69").
streetOnRoute("161", "R62", 125, 460).
link("69", "161").
streetOnRoute("122", "R62", 145, 485).
link("161", "122").
streetOnRoute("[3|2]", "R62", 165, 540).
link("122", "[3|2]").
streetOnRoute("[202|34]", "R62", 200, 580).
link("[3|2]", "[202|34]").
streetOnRoute("134", "R62", 250, 630).
link("[202|34]", "134").
route("R63").
streetOnRoute("[109[0]|109[1][0]+20003|109[1][1]]", "R63", 0, 0).
streetOnRoute("[116|46]", "R63", 10, 35).
link("[109[0]|109[1][0]+20003|109[1][1]]", "[116|46]").
streetOnRoute("113", "R63", 55, 85).
link("[116|46]", "113").
streetOnRoute("209", "R63", 95, 135).
link("113", "209").
route("R64").
streetOnRoute("35", "R64", 0, 0).
streetOnRoute("38", "R64", 10, 70).
link("35", "38").
streetOnRoute("15", "R64", 25, 175).
link("38", "15").
streetOnRoute("14", "R64", 65, 250).
link("15", "14").
route("R65").
streetOnRoute("86", "R65", 0, 0).
route("R66").
streetOnRoute("122", "R66", 0, 0).
streetOnRoute("1b", "R66", 20, 1350).
link("122", "1b").
streetOnRoute("1", "R66", 55, 2190).
link("1b", "1").
streetOnRoute("204a[0]", "R66", 90, 2225).
link("1", "204a[0]").
streetOnRoute("124", "R66", 140, 2345).
link("204a[0]", "124").
route("R67").
streetOnRoute("224[0]", "R67", 0, 0).
streetOnRoute("224[1]", "R67", 25, 145).
link("224[0]", "224[1]").
streetOnRoute("[181|18]", "R67", 40, 205).
link("224[1]", "[181|18]").
streetOnRoute("69", "R67", 80, 365).
link("[181|18]", "69").
streetOnRoute("161", "R67", 125, 460).
link("69", "161").
streetOnRoute("122", "R67", 145, 485).
link("161", "122").
streetOnRoute("1b", "R67", 165, 1530).
link("122", "1b").
streetOnRoute("1", "R67", 200, 2370).
link("1b", "1").
streetOnRoute("204a[0]", "R67", 235, 2405).
link("1", "204a[0]").
streetOnRoute("204b[0]", "R67", 285, 2525).
link("204a[0]", "204b[0]").
streetOnRoute("204[1][0]", "R67", 290, 2530).
link("204b[0]", "204[1][0]").
streetOnRoute("204[1][1]", "R67", 325, 2565).
link("204[1][0]", "204[1][1]").
route("R68").
streetOnRoute("65", "R68", 0, 0).
streetOnRoute("57[0]", "R68", 10, 45).
link("65", "57[0]").
streetOnRoute("57[1]", "R68", 25, 130).
link("57[0]", "57[1]").
streetOnRoute("62", "R68", 30, 145).
link("57[1]", "62").
streetOnRoute("159", "R68", 50, 235).
link("62", "159").
streetOnRoute("42", "R68", 70, 290).
link("159", "42").
streetOnRoute("39", "R68", 75, 310).
link("42", "39").
streetOnRoute("35", "R68", 80, 330).
link("39", "35").
streetOnRoute("38", "R68", 90, 385).
link("35", "38").
streetOnRoute("50", "R68", 105, 445).
link("38", "50").
streetOnRoute("19", "R68", 115, 460).
link("50", "19").
streetOnRoute("[22|59]", "R68", 125, 495).
link("19", "[22|59]").
streetOnRoute("(53cd|53[0]|53[1][0])", "R68", 140, 515).
link("[22|59]", "(53cd|53[0]|53[1][0])").
streetOnRoute("79", "R68", 145, 535).
link("(53cd|53[0]|53[1][0])", "79").
streetOnRoute("[68|11]", "R68", 160, 550).
link("79", "[68|11]").
streetOnRoute("84", "R68", 200, 590).
link("[68|11]", "84").
streetOnRoute("180", "R68", 215, 610).
link("84", "180").
route("R69").
streetOnRoute("57[0]", "R69", 0, 0).
streetOnRoute("57[1]", "R69", 15, 85).
link("57[0]", "57[1]").
streetOnRoute("62", "R69", 20, 100).
link("57[1]", "62").
streetOnRoute("159", "R69", 40, 190).
link("62", "159").
streetOnRoute("42", "R69", 60, 245).
link("159", "42").
streetOnRoute("39", "R69", 65, 265).
link("42", "39").
streetOnRoute("35", "R69", 70, 285).
link("39", "35").
streetOnRoute("38", "R69", 80, 340).
link("35", "38").
streetOnRoute("15", "R69", 95, 400).
link("38", "15").
streetOnRoute("24", "R69", 135, 475).
link("15", "24").
streetOnRoute("[22|59]", "R69", 150, 490).
link("24", "[22|59]").
streetOnRoute("(53cd|53[0]|53[1][0]|53[1][1][0]|77[1][0])", "R69", 165, 510).
link("[22|59]", "(53cd|53[0]|53[1][0]|53[1][1][0]|77[1][0])").
streetOnRoute("77[1][1]", "R69", 170, 520).
link("(53cd|53[0]|53[1][0]|53[1][1][0]|77[1][0])", "77[1][1]").
route("R70").
streetOnRoute("19", "R70", 0, 0).
streetOnRoute("[22|59]", "R70", 10, 35).
link("19", "[22|59]").
streetOnRoute("(53cd|53[0]|53[1][0]|53[1][1][0]|77[1][0])", "R70", 25, 55).
link("[22|59]", "(53cd|53[0]|53[1][0]|53[1][1][0]|77[1][0])").
streetOnRoute("77[1][1]", "R70", 30, 65).
link("(53cd|53[0]|53[1][0]|53[1][1][0]|77[1][0])", "77[1][1]").
route("R71").
streetOnRoute("39", "R71", 0, 0).
streetOnRoute("35", "R71", 5, 60).
link("39", "35").
streetOnRoute("38", "R71", 15, 115).
link("35", "38").
streetOnRoute("15", "R71", 30, 180).
link("38", "15").
streetOnRoute("14", "R71", 70, 255).
link("15", "14").
route("R72").
streetOnRoute("159", "R72", 0, 0).
streetOnRoute("42", "R72", 20, 80).
link("159", "42").
streetOnRoute("39", "R72", 25, 100).
link("42", "39").
streetOnRoute("35", "R72", 30, 120).
link("39", "35").
streetOnRoute("38", "R72", 40, 175).
link("35", "38").
streetOnRoute("15", "R72", 55, 235).
link("38", "15").
streetOnRoute("24", "R72", 95, 310).
link("15", "24").
streetOnRoute("[22|59]", "R72", 110, 325).
link("24", "[22|59]").
streetOnRoute("(53cd|53[0])", "R72", 125, 345).
link("[22|59]", "(53cd|53[0])").
streetOnRoute("78[1][1]", "R72", 130, 365).
link("(53cd|53[0])", "78[1][1]").
streetOnRoute("[189[0]|189[1][0]+20000|189[1][1]]", "R72", 140, 375).
link("78[1][1]", "[189[0]|189[1][0]+20000|189[1][1]]").
streetOnRoute("191", "R72", 190, 425).
link("[189[0]|189[1][0]+20000|189[1][1]]", "191").
streetOnRoute("[17|71]", "R72", 235, 470).
link("191", "[17|71]").
streetOnRoute("86", "R72", 285, 525).
link("[17|71]", "86").
route("R73").
streetOnRoute("69", "R73", 0, 0).
streetOnRoute("161", "R73", 45, 95).
link("69", "161").
streetOnRoute("122", "R73", 65, 120).
link("161", "122").
streetOnRoute("1b", "R73", 85, 1415).
link("122", "1b").
streetOnRoute("1", "R73", 120, 2255).
link("1b", "1").
streetOnRoute("204a[0]", "R73", 155, 2290).
link("1", "204a[0]").
streetOnRoute("204b[0]", "R73", 205, 2410).
link("204a[0]", "204b[0]").
streetOnRoute("54", "R73", 210, 2415).
link("204b[0]", "54").
route("R74").
streetOnRoute("[89[0]|20002+89[1][0]|89[1][1]]", "R74", 0, 0).
streetOnRoute("91", "R74", 15, 35).
link("[89[0]|20002+89[1][0]|89[1][1]]", "91").
streetOnRoute("186", "R74", 20, 80).
link("91", "186").
streetOnRoute("[109[0]|109[1][0]+20003|109[1][1]]", "R74", 25, 110).
link("186", "[109[0]|109[1][0]+20003|109[1][1]]").
streetOnRoute("120", "R74", 35, 145).
link("[109[0]|109[1][0]+20003|109[1][1]]", "120").
streetOnRoute("65", "R74", 50, 160).
link("120", "65").
streetOnRoute("[200|60]", "R74", 60, 205).
link("65", "[200|60]").
route("R75").
streetOnRoute("1b", "R75", 0, 1330).
streetOnRoute("1", "R75", 35, 2170).
link("1b", "1").
streetOnRoute("204a[0]", "R75", 70, 2205).
link("1", "204a[0]").
streetOnRoute("124", "R75", 120, 2325).
link("204a[0]", "124").
route("R76").
streetOnRoute("65", "R76", 0, 0).
streetOnRoute("57[0]", "R76", 10, 45).
link("65", "57[0]").
streetOnRoute("57[1]", "R76", 25, 130).
link("57[0]", "57[1]").
streetOnRoute("62", "R76", 30, 145).
link("57[1]", "62").
streetOnRoute("159", "R76", 50, 235).
link("62", "159").
streetOnRoute("42", "R76", 70, 290).
link("159", "42").
streetOnRoute("39", "R76", 75, 310).
link("42", "39").
streetOnRoute("35", "R76", 80, 330).
link("39", "35").
streetOnRoute("38", "R76", 90, 385).
link("35", "38").
streetOnRoute("15", "R76", 105, 445).
link("38", "15").
streetOnRoute("24", "R76", 145, 520).
link("15", "24").
streetOnRoute("[22|59]", "R76", 160, 535).
link("24", "[22|59]").
streetOnRoute("(53cd|53[0]|53[1][0]|53[1][1][0]|77[1][0])", "R76", 175, 555).
link("[22|59]", "(53cd|53[0]|53[1][0]|53[1][1][0]|77[1][0])").
streetOnRoute("77[1][1]", "R76", 180, 565).
link("(53cd|53[0]|53[1][0]|53[1][1][0]|77[1][0])", "77[1][1]").
route("R77").
streetOnRoute("85", "R77", 0, 0).
streetOnRoute("72[0]", "R77", 60, 60).
link("85", "72[0]").
streetOnRoute("72[1]", "R77", 105, 825).
link("72[0]", "72[1]").
streetOnRoute("69", "R77", 140, 865).
link("72[1]", "69").
streetOnRoute("161", "R77", 185, 960).
link("69", "161").
streetOnRoute("194", "R77", 205, 985).
link("161", "194").
streetOnRoute("91", "R77", 220, 1000).
link("194", "91").
streetOnRoute("186", "R77", 225, 1020).
link("91", "186").
streetOnRoute("[109[0]|109[1][0]+20003|109[1][1]]", "R77", 230, 1050).
link("186", "[109[0]|109[1][0]+20003|109[1][1]]").
streetOnRoute("120", "R77", 240, 1060).
link("[109[0]|109[1][0]+20003|109[1][1]]", "120").
streetOnRoute("65", "R77", 255, 1075).
link("120", "65").
streetOnRoute("[200|60]", "R77", 265, 1090).
link("65", "[200|60]").
route("R78").
streetOnRoute("91", "R78", 0, 0).
streetOnRoute("186", "R78", 5, 95).
link("91", "186").
streetOnRoute("[109[0]|109[1][0]+20003|109[1][1]]", "R78", 10, 125).
link("186", "[109[0]|109[1][0]+20003|109[1][1]]").
streetOnRoute("[116|46]", "R78", 20, 160).
link("[109[0]|109[1][0]+20003|109[1][1]]", "[116|46]").
streetOnRoute("113", "R78", 65, 210).
link("[116|46]", "113").
streetOnRoute("209", "R78", 105, 260).
link("113", "209").
route("R79").
streetOnRoute("188", "R79", 0, 0).
streetOnRoute("[87[0]|20001+87[1][0]|87[1][1]]", "R79", 40, 60).
link("188", "[87[0]|20001+87[1][0]|87[1][1]]").
streetOnRoute("m90", "R79", 45, 80).
link("[87[0]|20001+87[1][0]|87[1][1]]", "m90").
streetOnRoute("[89[0]|20002+89[1][0]|89[1][1]]", "R79", 50, 95).
link("m90", "[89[0]|20002+89[1][0]|89[1][1]]").
streetOnRoute("91", "R79", 65, 110).
link("[89[0]|20002+89[1][0]|89[1][1]]", "91").
streetOnRoute("186", "R79", 70, 130).
link("91", "186").
streetOnRoute("[109[0]|109[1][0]+20003|109[1][1]]", "R79", 75, 160).
link("186", "[109[0]|109[1][0]+20003|109[1][1]]").
streetOnRoute("[116|46]", "R79", 85, 195).
link("[109[0]|109[1][0]+20003|109[1][1]]", "[116|46]").
streetOnRoute("201", "R79", 130, 265).
link("[116|46]", "201").
streetOnRoute("201c", "R79", 180, 670).
link("201", "201c").
streetOnRoute("204a[0]", "R79", 215, 705).
link("201c", "204a[0]").
streetOnRoute("204b[0]", "R79", 265, 825).
link("204a[0]", "204b[0]").
streetOnRoute("54", "R79", 270, 830).
link("204b[0]", "54").
route("R80").
streetOnRoute("120", "R80", 0, 0).
streetOnRoute("117", "R80", 15, 15).
link("120", "117").
streetOnRoute("209", "R80", 60, 80).
link("117", "209").
route("R81").
streetOnRoute("72[0]", "R81", 0, 0).
streetOnRoute("72[1]", "R81", 45, 885).
link("72[0]", "72[1]").
streetOnRoute("69", "R81", 80, 925).
link("72[1]", "69").
streetOnRoute("161", "R81", 125, 1020).
link("69", "161").
streetOnRoute("122", "R81", 145, 1045).
link("161", "122").
streetOnRoute("1b", "R81", 165, 1530).
link("122", "1b").
streetOnRoute("1", "R81", 200, 2370).
link("1b", "1").
streetOnRoute("204a[0]", "R81", 235, 2405).
link("1", "204a[0]").
streetOnRoute("204b[0]", "R81", 285, 2525).
link("204a[0]", "204b[0]").
streetOnRoute("54", "R81", 290, 2530).
link("204b[0]", "54").
route("R82").
streetOnRoute("74", "R82", 0, 0).
streetOnRoute("72[1]", "R82", 55, 895).
link("74", "72[1]").
streetOnRoute("69", "R82", 90, 935).
link("72[1]", "69").
streetOnRoute("161", "R82", 135, 1030).
link("69", "161").
streetOnRoute("194", "R82", 155, 1055).
link("161", "194").
streetOnRoute("91", "R82", 170, 1070).
link("194", "91").
streetOnRoute("186", "R82", 175, 1090).
link("91", "186").
streetOnRoute("[109[0]|109[1][0]+20003|109[1][1]]", "R82", 180, 1120).
link("186", "[109[0]|109[1][0]+20003|109[1][1]]").
streetOnRoute("120", "R82", 190, 1130).
link("[109[0]|109[1][0]+20003|109[1][1]]", "120").
streetOnRoute("117", "R82", 205, 1145).
link("120", "117").
streetOnRoute("209", "R82", 250, 1190).
link("117", "209").
route("R83").
streetOnRoute("[210|43[0]]", "R83", 0, 0).
streetOnRoute("118", "R83", 65, 185).
link("[210|43[0]]", "118").
streetOnRoute("65", "R83", 80, 245).
link("118", "65").
streetOnRoute("57[0]", "R83", 90, 290).
link("65", "57[0]").
streetOnRoute("57[1]", "R83", 105, 375).
link("57[0]", "57[1]").
streetOnRoute("62", "R83", 110, 390).
link("57[1]", "62").
streetOnRoute("159", "R83", 130, 480).
link("62", "159").
streetOnRoute("42", "R83", 150, 535).
link("159", "42").
streetOnRoute("39", "R83", 155, 555).
link("42", "39").
streetOnRoute("35", "R83", 160, 575).
link("39", "35").
streetOnRoute("38", "R83", 170, 630).
link("35", "38").
streetOnRoute("33", "R83", 185, 690).
link("38", "33").
streetOnRoute("10", "R83", 195, 720).
link("33", "10").
streetOnRoute("[13|104]", "R83", 205, 765).
link("10", "[13|104]").
streetOnRoute("24", "R83", 240, 810).
link("[13|104]", "24").
streetOnRoute("[22|59]", "R83", 255, 825).
link("24", "[22|59]").
streetOnRoute("(53cd|53[0])", "R83", 270, 845).
link("[22|59]", "(53cd|53[0])").
streetOnRoute("78[1][1]", "R83", 275, 865).
link("(53cd|53[0])", "78[1][1]").
streetOnRoute("[189[0]|189[1][0]+20000|189[1][1]]", "R83", 285, 875).
link("78[1][1]", "[189[0]|189[1][0]+20000|189[1][1]]").
streetOnRoute("191", "R83", 335, 925).
link("[189[0]|189[1][0]+20000|189[1][1]]", "191").
streetOnRoute("[17|71]", "R83", 380, 970).
link("191", "[17|71]").
streetOnRoute("84", "R83", 430, 1020).
link("[17|71]", "84").
streetOnRoute("180", "R83", 445, 1040).
link("84", "180").
route("R84").
streetOnRoute("204[1][1]", "R84", 0, 0).
route("R85").
streetOnRoute("[89[0]|20002+89[1][0]|89[1][1]]", "R85", 0, 0).
streetOnRoute("91", "R85", 15, 35).
link("[89[0]|20002+89[1][0]|89[1][1]]", "91").
streetOnRoute("186", "R85", 20, 80).
link("91", "186").
streetOnRoute("[109[0]|109[1][0]+20003|109[1][1]]", "R85", 25, 110).
link("186", "[109[0]|109[1][0]+20003|109[1][1]]").
streetOnRoute("120", "R85", 35, 145).
link("[109[0]|109[1][0]+20003|109[1][1]]", "120").
streetOnRoute("117", "R85", 50, 160).
link("120", "117").
streetOnRoute("209", "R85", 95, 225).
link("117", "209").
route("R86").
streetOnRoute("66", "R86", 0, 0).
streetOnRoute("117", "R86", 10, 10).
link("66", "117").
streetOnRoute("209", "R86", 55, 75).
link("117", "209").
route("R87").
streetOnRoute("38", "R87", 0, 0).
streetOnRoute("50", "R87", 15, 60).
link("38", "50").
streetOnRoute("19", "R87", 25, 75).
link("50", "19").
streetOnRoute("[22|59]", "R87", 35, 110).
link("19", "[22|59]").
streetOnRoute("(53cd|53[0]|53[1][0]|53[1][1][0]|77[1][0])", "R87", 50, 130).
link("[22|59]", "(53cd|53[0]|53[1][0]|53[1][1][0]|77[1][0])").
streetOnRoute("77[1][1]", "R87", 55, 140).
link("(53cd|53[0]|53[1][0]|53[1][1][0]|77[1][0])", "77[1][1]").
route("R88").
streetOnRoute("159", "R88", 0, 0).
streetOnRoute("42", "R88", 20, 80).
link("159", "42").
streetOnRoute("39", "R88", 25, 100).
link("42", "39").
streetOnRoute("35", "R88", 30, 120).
link("39", "35").
streetOnRoute("38", "R88", 40, 175).
link("35", "38").
streetOnRoute("15", "R88", 55, 235).
link("38", "15").
streetOnRoute("24", "R88", 95, 310).
link("15", "24").
streetOnRoute("[22|59]", "R88", 110, 325).
link("24", "[22|59]").
streetOnRoute("(53cd|53[0]|53[1][0])", "R88", 125, 345).
link("[22|59]", "(53cd|53[0]|53[1][0])").
streetOnRoute("79", "R88", 130, 365).
link("(53cd|53[0]|53[1][0])", "79").
streetOnRoute("[68|11]", "R88", 145, 380).
link("79", "[68|11]").
streetOnRoute("84", "R88", 185, 420).
link("[68|11]", "84").
streetOnRoute("180", "R88", 200, 440).
link("84", "180").
route("R89").
streetOnRoute("180", "R89", 0, 0).
route("R90").
streetOnRoute("79", "R90", 0, 0).
streetOnRoute("[68|11]", "R90", 15, 15).
link("79", "[68|11]").
streetOnRoute("72[0]", "R90", 55, 60).
link("[68|11]", "72[0]").
streetOnRoute("72[1]", "R90", 100, 820).
link("72[0]", "72[1]").
streetOnRoute("69", "R90", 135, 860).
link("72[1]", "69").
streetOnRoute("161", "R90", 180, 955).
link("69", "161").
streetOnRoute("122", "R90", 200, 980).
link("161", "122").
streetOnRoute("1b", "R90", 220, 1935).
link("122", "1b").
streetOnRoute("1", "R90", 255, 2775).
link("1b", "1").
streetOnRoute("204a[0]", "R90", 290, 2810).
link("1", "204a[0]").
streetOnRoute("124", "R90", 340, 2930).
link("204a[0]", "124").
route("R91").
streetOnRoute("[189[0]|189[1][0]+20000|189[1][1]]", "R91", 0, 0).
streetOnRoute("188", "R91", 50, 55).
link("[189[0]|189[1][0]+20000|189[1][1]]", "188").
streetOnRoute("[87[0]|20001+87[1][0]|87[1][1]]", "R91", 90, 110).
link("188", "[87[0]|20001+87[1][0]|87[1][1]]").
streetOnRoute("m90", "R91", 95, 130).
link("[87[0]|20001+87[1][0]|87[1][1]]", "m90").
streetOnRoute("171", "R91", 100, 145).
link("m90", "171").
streetOnRoute("161", "R91", 145, 190).
link("171", "161").
streetOnRoute("122", "R91", 165, 215).
link("161", "122").
streetOnRoute("1b", "R91", 185, 1550).
link("122", "1b").
streetOnRoute("1", "R91", 220, 2390).
link("1b", "1").
streetOnRoute("204a[0]", "R91", 255, 2425).
link("1", "204a[0]").
streetOnRoute("204b[0]", "R91", 305, 2545).
link("204a[0]", "204b[0]").
streetOnRoute("204[1][0]", "R91", 310, 2550).
link("204b[0]", "204[1][0]").
streetOnRoute("204[1][1]", "R91", 345, 2585).
link("204[1][0]", "204[1][1]").
route("R92").
streetOnRoute("58[0]", "R92", 0, 0).
streetOnRoute("58[1]", "R92", 5, 10).
link("58[0]", "58[1]").
streetOnRoute("66", "R92", 20, 25).
link("58[1]", "66").
streetOnRoute("117", "R92", 30, 35).
link("66", "117").
streetOnRoute("209", "R92", 75, 100).
link("117", "209").
route("R93").
streetOnRoute("[189[0]|189[1][0]+20000|189[1][1]]", "R93", 0, 0).
streetOnRoute("188", "R93", 50, 55).
link("[189[0]|189[1][0]+20000|189[1][1]]", "188").
streetOnRoute("[87[0]|20001+87[1][0]|87[1][1]]", "R93", 90, 110).
link("188", "[87[0]|20001+87[1][0]|87[1][1]]").
streetOnRoute("m90", "R93", 95, 130).
link("[87[0]|20001+87[1][0]|87[1][1]]", "m90").
streetOnRoute("171", "R93", 100, 145).
link("m90", "171").
streetOnRoute("161", "R93", 145, 190).
link("171", "161").
streetOnRoute("122", "R93", 165, 215).
link("161", "122").
streetOnRoute("1b", "R93", 185, 1550).
link("122", "1b").
streetOnRoute("1", "R93", 220, 2390).
link("1b", "1").
streetOnRoute("204a[0]", "R93", 255, 2425).
link("1", "204a[0]").
streetOnRoute("124", "R93", 305, 2545).
link("204a[0]", "124").
route("R94").
streetOnRoute("186", "R94", 0, 0).
streetOnRoute("[109[0]|109[1][0]+20003|109[1][1]]", "R94", 5, 75).
link("186", "[109[0]|109[1][0]+20003|109[1][1]]").
streetOnRoute("[116|46]", "R94", 15, 110).
link("[109[0]|109[1][0]+20003|109[1][1]]", "[116|46]").
streetOnRoute("134", "R94", 60, 160).
link("[116|46]", "134").
route("R95").
streetOnRoute("131", "R95", 0, 0).
streetOnRoute("65", "R95", 30, 75).
link("131", "65").
streetOnRoute("57[0]", "R95", 40, 120).
link("65", "57[0]").
streetOnRoute("57[1]", "R95", 55, 205).
link("57[0]", "57[1]").
streetOnRoute("62", "R95", 60, 220).
link("57[1]", "62").
streetOnRoute("159", "R95", 80, 310).
link("62", "159").
streetOnRoute("42", "R95", 100, 365).
link("159", "42").
streetOnRoute("39", "R95", 105, 385).
link("42", "39").
streetOnRoute("35", "R95", 110, 405).
link("39", "35").
streetOnRoute("38", "R95", 120, 460).
link("35", "38").
streetOnRoute("15", "R95", 135, 520).
link("38", "15").
streetOnRoute("14", "R95", 175, 595).
link("15", "14").
route("R96").
streetOnRoute("42", "R96", 0, 0).
streetOnRoute("39", "R96", 5, 65).
link("42", "39").
streetOnRoute("35", "R96", 10, 85).
link("39", "35").
streetOnRoute("38", "R96", 20, 140).
link("35", "38").
streetOnRoute("50", "R96", 35, 200).
link("38", "50").
streetOnRoute("19", "R96", 45, 215).
link("50", "19").
streetOnRoute("[22|59]", "R96", 55, 250).
link("19", "[22|59]").
streetOnRoute("(53cd|53[0]|53[1][0])", "R96", 70, 270).
link("[22|59]", "(53cd|53[0]|53[1][0])").
streetOnRoute("79", "R96", 75, 290).
link("(53cd|53[0]|53[1][0])", "79").
streetOnRoute("[68|11]", "R96", 90, 305).
link("79", "[68|11]").
streetOnRoute("84", "R96", 130, 345).
link("[68|11]", "84").
streetOnRoute("180", "R96", 145, 365).
link("84", "180").
route("R97").
streetOnRoute("191", "R97", 0, 0).
streetOnRoute("[17|71]", "R97", 45, 45).
link("191", "[17|71]").
streetOnRoute("86", "R97", 95, 100).
link("[17|71]", "86").
route("R98").
streetOnRoute("[13|104]", "R98", 0, 0).
streetOnRoute("24", "R98", 35, 45).
link("[13|104]", "24").
streetOnRoute("[22|59]", "R98", 50, 60).
link("24", "[22|59]").
streetOnRoute("(53cd|53[0]|53[1][0])", "R98", 65, 105).
link("[22|59]", "(53cd|53[0]|53[1][0])").
streetOnRoute("79", "R98", 70, 125).
link("(53cd|53[0]|53[1][0])", "79").
streetOnRoute("[68|11]", "R98", 85, 140).
link("79", "[68|11]").
streetOnRoute("86", "R98", 125, 180).
link("[68|11]", "86").
route("R99").
streetOnRoute("224[1]", "R99", 0, 0).
streetOnRoute("[181|18]", "R99", 15, 90).
link("224[1]", "[181|18]").
streetOnRoute("69", "R99", 55, 340).
link("[181|18]", "69").
streetOnRoute("161", "R99", 100, 435).
link("69", "161").
streetOnRoute("122", "R99", 120, 460).
link("161", "122").
streetOnRoute("1b", "R99", 140, 1470).
link("122", "1b").
streetOnRoute("1", "R99", 175, 2310).
link("1b", "1").
streetOnRoute("204a[0]", "R99", 210, 2345).
link("1", "204a[0]").
streetOnRoute("204b[0]", "R99", 260, 2465).
link("204a[0]", "204b[0]").
streetOnRoute("204[1][0]", "R99", 265, 2470).
link("204b[0]", "204[1][0]").
streetOnRoute("204[1][1]", "R99", 300, 2505).
link("204[1][0]", "204[1][1]").
route("R100").
streetOnRoute("131", "R100", 0, 0).
streetOnRoute("65", "R100", 30, 75).
link("131", "65").
streetOnRoute("57[0]", "R100", 40, 120).
link("65", "57[0]").
streetOnRoute("57[1]", "R100", 55, 205).
link("57[0]", "57[1]").
streetOnRoute("62", "R100", 60, 220).
link("57[1]", "62").
streetOnRoute("159", "R100", 80, 310).
link("62", "159").
streetOnRoute("42", "R100", 100, 365).
link("159", "42").
streetOnRoute("39", "R100", 105, 385).
link("42", "39").
streetOnRoute("35", "R100", 110, 405).
link("39", "35").
streetOnRoute("38", "R100", 120, 460).
link("35", "38").
streetOnRoute("50", "R100", 135, 520).
link("38", "50").
streetOnRoute("19", "R100", 145, 535).
link("50", "19").
streetOnRoute("[22|59]", "R100", 155, 570).
link("19", "[22|59]").
streetOnRoute("(53cd|53[0]|53[1][0])", "R100", 170, 590).
link("[22|59]", "(53cd|53[0]|53[1][0])").
streetOnRoute("79", "R100", 175, 610).
link("(53cd|53[0]|53[1][0])", "79").
streetOnRoute("[68|11]", "R100", 190, 625).
link("79", "[68|11]").
streetOnRoute("84", "R100", 230, 665).
link("[68|11]", "84").
streetOnRoute("180", "R100", 245, 685).
link("84", "180").
route("R101").
streetOnRoute("67", "R101", 0, 0).
streetOnRoute("[80|127]", "R101", 10, 15).
link("67", "[80|127]").
streetOnRoute("(77[1][0])", "R101", 25, 50).
link("[80|127]", "(77[1][0])").
streetOnRoute("77[1][1]", "R101", 30, 70).
link("(77[1][0])", "77[1][1]").
route("R102").
streetOnRoute("1", "R102", 0, 205).
streetOnRoute("204a[0]", "R102", 35, 275).
link("1", "204a[0]").
streetOnRoute("204b[0]", "R102", 85, 635).
link("204a[0]", "204b[0]").
streetOnRoute("204[1][0]", "R102", 90, 650).
link("204b[0]", "204[1][0]").
streetOnRoute("204[1][1]", "R102", 125, 685).
link("204[1][0]", "204[1][1]").
route("R103").
streetOnRoute("[181|18]", "R103", 0, 0).
streetOnRoute("69", "R103", 40, 325).
link("[181|18]", "69").
streetOnRoute("161", "R103", 85, 420).
link("69", "161").
streetOnRoute("194", "R103", 105, 445).
link("161", "194").
streetOnRoute("91", "R103", 120, 460).
link("194", "91").
streetOnRoute("186", "R103", 125, 480).
link("91", "186").
streetOnRoute("[109[0]|109[1][0]+20003|109[1][1]]", "R103", 130, 510).
link("186", "[109[0]|109[1][0]+20003|109[1][1]]").
streetOnRoute("120", "R103", 140, 520).
link("[109[0]|109[1][0]+20003|109[1][1]]", "120").
streetOnRoute("117", "R103", 155, 535).
link("120", "117").
streetOnRoute("209", "R103", 200, 585).
link("117", "209").
route("R104").
streetOnRoute("1b", "R104", 0, 1330).
streetOnRoute("1", "R104", 35, 2170).
link("1b", "1").
streetOnRoute("204a[0]", "R104", 70, 2205).
link("1", "204a[0]").
streetOnRoute("204b[0]", "R104", 120, 2325).
link("204a[0]", "204b[0]").
streetOnRoute("204[1][0]", "R104", 125, 2330).
link("204b[0]", "204[1][0]").
streetOnRoute("204[1][1]", "R104", 160, 2365).
link("204[1][0]", "204[1][1]").
route("R105").
streetOnRoute("204a[0]", "R105", 0, 0).
streetOnRoute("204b[0]", "R105", 50, 120).
link("204a[0]", "204b[0]").
streetOnRoute("54", "R105", 55, 125).
link("204b[0]", "54").
route("R106").
streetOnRoute("159", "R106", 0, 0).
streetOnRoute("42", "R106", 20, 80).
link("159", "42").
streetOnRoute("39", "R106", 25, 100).
link("42", "39").
streetOnRoute("35", "R106", 30, 120).
link("39", "35").
streetOnRoute("38", "R106", 40, 175).
link("35", "38").
streetOnRoute("15", "R106", 55, 235).
link("38", "15").
streetOnRoute("14", "R106", 95, 310).
link("15", "14").
route("R107").
streetOnRoute("36", "R107", 0, 0).
streetOnRoute("40", "R107", 10, 10).
link("36", "40").
streetOnRoute("41", "R107", 15, 15).
link("40", "41").
streetOnRoute("160", "R107", 20, 35).
link("41", "160").
streetOnRoute("61", "R107", 40, 55).
link("160", "61").
streetOnRoute("58[0]", "R107", 60, 75).
link("61", "58[0]").
streetOnRoute("58[1]", "R107", 65, 85).
link("58[0]", "58[1]").
streetOnRoute("66", "R107", 80, 100).
link("58[1]", "66").
streetOnRoute("117", "R107", 90, 110).
link("66", "117").
streetOnRoute("209", "R107", 135, 175).
link("117", "209").
route("R108").
streetOnRoute("131", "R108", 0, 0).
streetOnRoute("117", "R108", 30, 30).
link("131", "117").
streetOnRoute("209", "R108", 75, 95).
link("117", "209").
route("R109").
streetOnRoute("131", "R109", 0, 0).
streetOnRoute("119", "R109", 30, 30).
link("131", "119").
streetOnRoute("[116|46]", "R109", 45, 45).
link("119", "[116|46]").
streetOnRoute("201", "R109", 90, 225).
link("[116|46]", "201").
streetOnRoute("201c", "R109", 140, 1435).
link("201", "201c").
streetOnRoute("204a[0]", "R109", 175, 1470).
link("201c", "204a[0]").
streetOnRoute("204b[0]", "R109", 225, 1590).
link("204a[0]", "204b[0]").
streetOnRoute("204[1][0]", "R109", 230, 1595).
link("204b[0]", "204[1][0]").
streetOnRoute("204[1][1]", "R109", 265, 1630).
link("204[1][0]", "204[1][1]").
route("R110").
streetOnRoute("[189[0]|189[1][0]+20000|189[1][1]]", "R110", 0, 0).
streetOnRoute("191", "R110", 50, 55).
link("[189[0]|189[1][0]+20000|189[1][1]]", "191").
streetOnRoute("69", "R110", 95, 380).
link("191", "69").
streetOnRoute("161", "R110", 140, 475).
link("69", "161").
streetOnRoute("122", "R110", 160, 500).
link("161", "122").
streetOnRoute("1b", "R110", 180, 1545).
link("122", "1b").
streetOnRoute("1", "R110", 215, 2385).
link("1b", "1").
streetOnRoute("204a[0]", "R110", 250, 2420).
link("1", "204a[0]").
streetOnRoute("204b[0]", "R110", 300, 2540).
link("204a[0]", "204b[0]").
streetOnRoute("54", "R110", 305, 2545).
link("204b[0]", "54").
route("R111").
streetOnRoute("74", "R111", 0, 0).
streetOnRoute("72[1]", "R111", 55, 895).
link("74", "72[1]").
streetOnRoute("69", "R111", 90, 935).
link("72[1]", "69").
streetOnRoute("161", "R111", 135, 1030).
link("69", "161").
streetOnRoute("122", "R111", 155, 1055).
link("161", "122").
streetOnRoute("1b", "R111", 175, 1540).
link("122", "1b").
streetOnRoute("1", "R111", 210, 2380).
link("1b", "1").
streetOnRoute("204a[0]", "R111", 245, 2415).
link("1", "204a[0]").
streetOnRoute("204b[0]", "R111", 295, 2535).
link("204a[0]", "204b[0]").
streetOnRoute("204[1][0]", "R111", 300, 2540).
link("204b[0]", "204[1][0]").
streetOnRoute("204[1][1]", "R111", 335, 2575).
link("204[1][0]", "204[1][1]").
route("R112").
streetOnRoute("[210|43[0]]", "R112", 0, 0).
streetOnRoute("118", "R112", 65, 185).
link("[210|43[0]]", "118").
streetOnRoute("65", "R112", 80, 245).
link("118", "65").
streetOnRoute("57[0]", "R112", 90, 290).
link("65", "57[0]").
streetOnRoute("57[1]", "R112", 105, 375).
link("57[0]", "57[1]").
streetOnRoute("62", "R112", 110, 390).
link("57[1]", "62").
streetOnRoute("159", "R112", 130, 480).
link("62", "159").
streetOnRoute("42", "R112", 150, 535).
link("159", "42").
streetOnRoute("39", "R112", 155, 555).
link("42", "39").
streetOnRoute("35", "R112", 160, 575).
link("39", "35").
streetOnRoute("38", "R112", 170, 630).
link("35", "38").
streetOnRoute("50", "R112", 185, 690).
link("38", "50").
streetOnRoute("19", "R112", 195, 705).
link("50", "19").
streetOnRoute("[22|59]", "R112", 205, 740).
link("19", "[22|59]").
streetOnRoute("(53cd|53[0]|53[1][0])", "R112", 220, 760).
link("[22|59]", "(53cd|53[0]|53[1][0])").
streetOnRoute("79", "R112", 225, 780).
link("(53cd|53[0]|53[1][0])", "79").
streetOnRoute("[68|11]", "R112", 240, 795).
link("79", "[68|11]").
streetOnRoute("86", "R112", 280, 835).
link("[68|11]", "86").
route("R113").
streetOnRoute("1b", "R113", 0, 1330).
streetOnRoute("1", "R113", 35, 2170).
link("1b", "1").
streetOnRoute("204a[0]", "R113", 70, 2205).
link("1", "204a[0]").
streetOnRoute("204b[0]", "R113", 120, 2325).
link("204a[0]", "204b[0]").
streetOnRoute("54", "R113", 125, 2330).
link("204b[0]", "54").
route("R114").
streetOnRoute("19", "R114", 0, 0).
streetOnRoute("[22|59]", "R114", 10, 35).
link("19", "[22|59]").
streetOnRoute("(53cd|53[0]|53[1][0])", "R114", 25, 65).
link("[22|59]", "(53cd|53[0]|53[1][0])").
streetOnRoute("79", "R114", 30, 85).
link("(53cd|53[0]|53[1][0])", "79").
streetOnRoute("[68|11]", "R114", 45, 100).
link("79", "[68|11]").
streetOnRoute("84", "R114", 85, 145).
link("[68|11]", "84").
streetOnRoute("180", "R114", 100, 165).
link("84", "180").
route("R115").
streetOnRoute("[189[0]|189[1][0]+20000|189[1][1]]", "R115", 0, 0).
streetOnRoute("188", "R115", 50, 55).
link("[189[0]|189[1][0]+20000|189[1][1]]", "188").
streetOnRoute("[87[0]|20001+87[1][0]|87[1][1]]", "R115", 90, 110).
link("188", "[87[0]|20001+87[1][0]|87[1][1]]").
streetOnRoute("m90", "R115", 95, 130).
link("[87[0]|20001+87[1][0]|87[1][1]]", "m90").
streetOnRoute("[89[0]|20002+89[1][0]|89[1][1]]", "R115", 100, 145).
link("m90", "[89[0]|20002+89[1][0]|89[1][1]]").
streetOnRoute("91", "R115", 115, 160).
link("[89[0]|20002+89[1][0]|89[1][1]]", "91").
streetOnRoute("186", "R115", 120, 180).
link("91", "186").
streetOnRoute("[109[0]|109[1][0]+20003|109[1][1]]", "R115", 125, 210).
link("186", "[109[0]|109[1][0]+20003|109[1][1]]").
streetOnRoute("[116|46]", "R115", 135, 220).
link("[109[0]|109[1][0]+20003|109[1][1]]", "[116|46]").
streetOnRoute("201", "R115", 180, 265).
link("[116|46]", "201").
streetOnRoute("201c", "R115", 230, 720).
link("201", "201c").
streetOnRoute("204a[0]", "R115", 265, 755).
link("201c", "204a[0]").
streetOnRoute("204b[0]", "R115", 315, 875).
link("204a[0]", "204b[0]").
streetOnRoute("204[1][0]", "R115", 320, 880).
link("204b[0]", "204[1][0]").
streetOnRoute("204[1][1]", "R115", 355, 915).
link("204[1][0]", "204[1][1]").
route("R116").
streetOnRoute("69", "R116", 0, 0).
streetOnRoute("161", "R116", 45, 95).
link("69", "161").
streetOnRoute("122", "R116", 65, 120).
link("161", "122").
streetOnRoute("1b", "R116", 85, 1415).
link("122", "1b").
streetOnRoute("1", "R116", 120, 2255).
link("1b", "1").
streetOnRoute("204a[0]", "R116", 155, 2290).
link("1", "204a[0]").
streetOnRoute("124", "R116", 205, 2410).
link("204a[0]", "124").
route("R117").
streetOnRoute("39", "R117", 0, 0).
streetOnRoute("35", "R117", 5, 60).
link("39", "35").
streetOnRoute("38", "R117", 15, 115).
link("35", "38").
streetOnRoute("50", "R117", 30, 175).
link("38", "50").
streetOnRoute("19", "R117", 40, 190).
link("50", "19").
streetOnRoute("[22|59]", "R117", 50, 225).
link("19", "[22|59]").
streetOnRoute("(53cd|53[0]|53[1][0]|53[1][1][0]|77[1][0])", "R117", 65, 245).
link("[22|59]", "(53cd|53[0]|53[1][0]|53[1][1][0]|77[1][0])").
streetOnRoute("77[1][1]", "R117", 70, 255).
link("(53cd|53[0]|53[1][0]|53[1][1][0]|77[1][0])", "77[1][1]").
route("R118").
streetOnRoute("(53cd|53[0]|53[1][0]|53[1][1][0]|77[1][0])", "R118", 0, 0).
streetOnRoute("77[1][1]", "R118", 5, 10).
link("(53cd|53[0]|53[1][0]|53[1][1][0]|77[1][0])", "77[1][1]").
route("R119").
streetOnRoute("191", "R119", 0, 0).
streetOnRoute("[17|71]", "R119", 45, 45).
link("191", "[17|71]").
streetOnRoute("84", "R119", 95, 100).
link("[17|71]", "84").
streetOnRoute("180", "R119", 110, 120).
link("84", "180").
route("R120").
streetOnRoute("206", "R120", 0, 0).
streetOnRoute("32", "R120", 10, 10).
link("206", "32").
streetOnRoute("40", "R120", 25, 25).
link("32", "40").
streetOnRoute("41", "R120", 30, 30).
link("40", "41").
streetOnRoute("160", "R120", 35, 50).
link("41", "160").
streetOnRoute("61", "R120", 55, 70).
link("160", "61").
streetOnRoute("58[0]", "R120", 75, 90).
link("61", "58[0]").
streetOnRoute("58[1]", "R120", 80, 100).
link("58[0]", "58[1]").
streetOnRoute("66", "R120", 95, 115).
link("58[1]", "66").
streetOnRoute("117", "R120", 105, 125).
link("66", "117").
streetOnRoute("209", "R120", 150, 190).
link("117", "209").
route("R121").
streetOnRoute("[210|43[0]]", "R121", 0, 0).
streetOnRoute("118", "R121", 65, 185).
link("[210|43[0]]", "118").
streetOnRoute("65", "R121", 80, 245).
link("118", "65").
streetOnRoute("57[0]", "R121", 90, 290).
link("65", "57[0]").
streetOnRoute("57[1]", "R121", 105, 375).
link("57[0]", "57[1]").
streetOnRoute("62", "R121", 110, 390).
link("57[1]", "62").
streetOnRoute("159", "R121", 130, 480).
link("62", "159").
streetOnRoute("42", "R121", 150, 535).
link("159", "42").
streetOnRoute("39", "R121", 155, 555).
link("42", "39").
streetOnRoute("35", "R121", 160, 575).
link("39", "35").
streetOnRoute("38", "R121", 170, 630).
link("35", "38").
streetOnRoute("33", "R121", 185, 690).
link("38", "33").
streetOnRoute("10", "R121", 195, 720).
link("33", "10").
streetOnRoute("[13|104]", "R121", 205, 765).
link("10", "[13|104]").
streetOnRoute("24", "R121", 240, 810).
link("[13|104]", "24").
streetOnRoute("[22|59]", "R121", 255, 825).
link("24", "[22|59]").
streetOnRoute("(53cd|53[0])", "R121", 270, 845).
link("[22|59]", "(53cd|53[0])").
streetOnRoute("78[1][1]", "R121", 275, 865).
link("(53cd|53[0])", "78[1][1]").
streetOnRoute("[189[0]|189[1][0]+20000|189[1][1]]", "R121", 285, 875).
link("78[1][1]", "[189[0]|189[1][0]+20000|189[1][1]]").
streetOnRoute("191", "R121", 335, 925).
link("[189[0]|189[1][0]+20000|189[1][1]]", "191").
streetOnRoute("[17|71]", "R121", 380, 970).
link("191", "[17|71]").
streetOnRoute("86", "R121", 430, 1020).
link("[17|71]", "86").
route("R122").
streetOnRoute("[189[0]|189[1][0]+20000|189[1][1]]", "R122", 0, 0).
streetOnRoute("188", "R122", 50, 55).
link("[189[0]|189[1][0]+20000|189[1][1]]", "188").
streetOnRoute("[87[0]|20001+87[1][0]|87[1][1]]", "R122", 90, 110).
link("188", "[87[0]|20001+87[1][0]|87[1][1]]").
streetOnRoute("m90", "R122", 95, 130).
link("[87[0]|20001+87[1][0]|87[1][1]]", "m90").
streetOnRoute("[89[0]|20002+89[1][0]|89[1][1]]", "R122", 100, 145).
link("m90", "[89[0]|20002+89[1][0]|89[1][1]]").
streetOnRoute("91", "R122", 115, 160).
link("[89[0]|20002+89[1][0]|89[1][1]]", "91").
streetOnRoute("186", "R122", 120, 180).
link("91", "186").
streetOnRoute("[109[0]|109[1][0]+20003|109[1][1]]", "R122", 125, 210).
link("186", "[109[0]|109[1][0]+20003|109[1][1]]").
streetOnRoute("120", "R122", 135, 220).
link("[109[0]|109[1][0]+20003|109[1][1]]", "120").
streetOnRoute("117", "R122", 150, 235).
link("120", "117").
streetOnRoute("209", "R122", 195, 285).
link("117", "209").
route("R123").
streetOnRoute("[210|43[0]]", "R123", 0, 0).
streetOnRoute("118", "R123", 65, 185).
link("[210|43[0]]", "118").
streetOnRoute("65", "R123", 80, 245).
link("118", "65").
streetOnRoute("57[0]", "R123", 90, 290).
link("65", "57[0]").
streetOnRoute("57[1]", "R123", 105, 375).
link("57[0]", "57[1]").
streetOnRoute("62", "R123", 110, 390).
link("57[1]", "62").
streetOnRoute("159", "R123", 130, 480).
link("62", "159").
streetOnRoute("42", "R123", 150, 535).
link("159", "42").
streetOnRoute("39", "R123", 155, 555).
link("42", "39").
streetOnRoute("35", "R123", 160, 575).
link("39", "35").
streetOnRoute("38", "R123", 170, 630).
link("35", "38").
streetOnRoute("15", "R123", 185, 690).
link("38", "15").
streetOnRoute("24", "R123", 225, 765).
link("15", "24").
streetOnRoute("[22|59]", "R123", 240, 780).
link("24", "[22|59]").
streetOnRoute("(53cd|53[0])", "R123", 255, 800).
link("[22|59]", "(53cd|53[0])").
streetOnRoute("78[1][1]", "R123", 260, 820).
link("(53cd|53[0])", "78[1][1]").
streetOnRoute("[189[0]|189[1][0]+20000|189[1][1]]", "R123", 270, 830).
link("78[1][1]", "[189[0]|189[1][0]+20000|189[1][1]]").
streetOnRoute("191", "R123", 320, 880).
link("[189[0]|189[1][0]+20000|189[1][1]]", "191").
streetOnRoute("[17|71]", "R123", 365, 925).
link("191", "[17|71]").
streetOnRoute("84", "R123", 415, 975).
link("[17|71]", "84").
streetOnRoute("180", "R123", 430, 995).
link("84", "180").
route("R124").
streetOnRoute("35", "R124", 0, 0).
streetOnRoute("38", "R124", 10, 70).
link("35", "38").
streetOnRoute("50", "R124", 25, 130).
link("38", "50").
streetOnRoute("19", "R124", 35, 145).
link("50", "19").
streetOnRoute("[22|59]", "R124", 45, 180).
link("19", "[22|59]").
streetOnRoute("(53cd|53[0]|53[1][0])", "R124", 60, 200).
link("[22|59]", "(53cd|53[0]|53[1][0])").
streetOnRoute("79", "R124", 65, 220).
link("(53cd|53[0]|53[1][0])", "79").
streetOnRoute("[68|11]", "R124", 80, 235).
link("79", "[68|11]").
streetOnRoute("84", "R124", 120, 275).
link("[68|11]", "84").
streetOnRoute("180", "R124", 135, 295).
link("84", "180").
route("R125").
streetOnRoute("[89[0]|20002+89[1][0]|89[1][1]]", "R125", 0, 0).
streetOnRoute("91", "R125", 15, 35).
link("[89[0]|20002+89[1][0]|89[1][1]]", "91").
streetOnRoute("186", "R125", 20, 80).
link("91", "186").
streetOnRoute("[109[0]|109[1][0]+20003|109[1][1]]", "R125", 25, 110).
link("186", "[109[0]|109[1][0]+20003|109[1][1]]").
streetOnRoute("[116|46]", "R125", 35, 145).
link("[109[0]|109[1][0]+20003|109[1][1]]", "[116|46]").
streetOnRoute("113", "R125", 80, 195).
link("[116|46]", "113").
streetOnRoute("209", "R125", 120, 245).
link("113", "209").
route("R126").
streetOnRoute("224[0]", "R126", 0, 0).
streetOnRoute("224[1]", "R126", 25, 145).
link("224[0]", "224[1]").
streetOnRoute("[181|18]", "R126", 40, 205).
link("224[1]", "[181|18]").
streetOnRoute("[17|71]", "R126", 80, 280).
link("[181|18]", "[17|71]").
streetOnRoute("67", "R126", 130, 335).
link("[17|71]", "67").
streetOnRoute("[80|127]", "R126", 140, 350).
link("67", "[80|127]").
streetOnRoute("(77[1][0]|77ab|77bc|77cd|53cd|53[0])", "R126", 155, 385).
link("[80|127]", "(77[1][0]|77ab|77bc|77cd|53cd|53[0])").
streetOnRoute("78[1][1]", "R126", 160, 390).
link("(77[1][0]|77ab|77bc|77cd|53cd|53[0])", "78[1][1]").
streetOnRoute("[189[0]|189[1][0]+20000|189[1][1]]", "R126", 170, 400).
link("78[1][1]", "[189[0]|189[1][0]+20000|189[1][1]]").
streetOnRoute("188", "R126", 220, 450).
link("[189[0]|189[1][0]+20000|189[1][1]]", "188").
streetOnRoute("[87[0]|20001+87[1][0]|87[1][1]]", "R126", 260, 490).
link("188", "[87[0]|20001+87[1][0]|87[1][1]]").
streetOnRoute("m90", "R126", 265, 495).
link("[87[0]|20001+87[1][0]|87[1][1]]", "m90").
streetOnRoute("171", "R126", 270, 510).
link("m90", "171").
streetOnRoute("161", "R126", 315, 555).
link("171", "161").
streetOnRoute("122", "R126", 335, 580).
link("161", "122").
streetOnRoute("1b", "R126", 355, 1510).
link("122", "1b").
streetOnRoute("1", "R126", 390, 2350).
link("1b", "1").
streetOnRoute("204a[0]", "R126", 425, 2385).
link("1", "204a[0]").
streetOnRoute("204b[0]", "R126", 475, 2465).
link("204a[0]", "204b[0]").
streetOnRoute("204[1][0]", "R126", 480, 2470).
link("204b[0]", "204[1][0]").
streetOnRoute("204[1][1]", "R126", 515, 2505).
link("204[1][0]", "204[1][1]").
route("R127").
streetOnRoute("38", "R127", 0, 0).
streetOnRoute("50", "R127", 15, 60).
link("38", "50").
streetOnRoute("19", "R127", 25, 75).
link("50", "19").
streetOnRoute("[22|59]", "R127", 35, 110).
link("19", "[22|59]").
streetOnRoute("(53cd|53[0]|53[1][0])", "R127", 50, 130).
link("[22|59]", "(53cd|53[0]|53[1][0])").
streetOnRoute("79", "R127", 55, 150).
link("(53cd|53[0]|53[1][0])", "79").
streetOnRoute("[68|11]", "R127", 70, 165).
link("79", "[68|11]").
streetOnRoute("84", "R127", 110, 205).
link("[68|11]", "84").
streetOnRoute("180", "R127", 125, 225).
link("84", "180").
route("R128").
streetOnRoute("[181|18]", "R128", 0, 0).
streetOnRoute("69", "R128", 40, 325).
link("[181|18]", "69").
streetOnRoute("161", "R128", 85, 420).
link("69", "161").
streetOnRoute("122", "R128", 105, 445).
link("161", "122").
streetOnRoute("[3|2]", "R128", 125, 500).
link("122", "[3|2]").
streetOnRoute("[202|34]", "R128", 160, 540).
link("[3|2]", "[202|34]").
streetOnRoute("113", "R128", 210, 590).
link("[202|34]", "113").
streetOnRoute("209", "R128", 250, 630).
link("113", "209").
route("R129").
streetOnRoute("[116|46]", "R129", 0, 0).
streetOnRoute("134", "R129", 45, 55).
link("[116|46]", "134").
route("R130").
streetOnRoute("37", "R130", 0, 0).
streetOnRoute("36", "R130", 15, 15).
link("37", "36").
streetOnRoute("40", "R130", 25, 25).
link("36", "40").
streetOnRoute("41", "R130", 30, 30).
link("40", "41").
streetOnRoute("160", "R130", 35, 50).
link("41", "160").
streetOnRoute("61", "R130", 55, 70).
link("160", "61").
streetOnRoute("58[0]", "R130", 75, 90).
link("61", "58[0]").
streetOnRoute("58[1]", "R130", 80, 100).
link("58[0]", "58[1]").
streetOnRoute("[200|60]", "R130", 95, 115).
link("58[1]", "[200|60]").
route("R131").
streetOnRoute("40", "R131", 0, 0).
streetOnRoute("153", "R131", 5, 5).
link("40", "153").
streetOnRoute("[87[0]|20001+87[1][0]|87[1][1]]", "R131", 70, 90).
link("153", "[87[0]|20001+87[1][0]|87[1][1]]").
streetOnRoute("m90", "R131", 75, 110).
link("[87[0]|20001+87[1][0]|87[1][1]]", "m90").
streetOnRoute("[89[0]|20002+89[1][0]|89[1][1]]", "R131", 80, 125).
link("m90", "[89[0]|20002+89[1][0]|89[1][1]]").
streetOnRoute("91", "R131", 95, 140).
link("[89[0]|20002+89[1][0]|89[1][1]]", "91").
streetOnRoute("186", "R131", 100, 160).
link("91", "186").
streetOnRoute("[109[0]|109[1][0]+20003|109[1][1]]", "R131", 105, 190).
link("186", "[109[0]|109[1][0]+20003|109[1][1]]").
streetOnRoute("120", "R131", 115, 200).
link("[109[0]|109[1][0]+20003|109[1][1]]", "120").
streetOnRoute("117", "R131", 130, 215).
link("120", "117").
streetOnRoute("209", "R131", 175, 265).
link("117", "209").
route("R132").
streetOnRoute("36", "R132", 0, 0).
streetOnRoute("40", "R132", 10, 10).
link("36", "40").
streetOnRoute("41", "R132", 15, 15).
link("40", "41").
streetOnRoute("160", "R132", 20, 35).
link("41", "160").
streetOnRoute("61", "R132", 40, 55).
link("160", "61").
streetOnRoute("58[0]", "R132", 60, 75).
link("61", "58[0]").
streetOnRoute("58[1]", "R132", 65, 85).
link("58[0]", "58[1]").
streetOnRoute("[200|60]", "R132", 80, 100).
link("58[1]", "[200|60]").
route("R133").
streetOnRoute("[13|104]", "R133", 0, 0).
streetOnRoute("16", "R133", 35, 45).
link("[13|104]", "16").
streetOnRoute("37", "R133", 45, 55).
link("16", "37").
streetOnRoute("36", "R133", 60, 70).
link("37", "36").
streetOnRoute("40", "R133", 70, 80).
link("36", "40").
streetOnRoute("153", "R133", 75, 85).
link("40", "153").
streetOnRoute("[87[0]|20001+87[1][0]|87[1][1]]", "R133", 140, 150).
link("153", "[87[0]|20001+87[1][0]|87[1][1]]").
streetOnRoute("m90", "R133", 145, 175).
link("[87[0]|20001+87[1][0]|87[1][1]]", "m90").
streetOnRoute("171", "R133", 150, 190).
link("m90", "171").
streetOnRoute("161", "R133", 195, 235).
link("171", "161").
streetOnRoute("194", "R133", 215, 260).
link("161", "194").
streetOnRoute("91", "R133", 230, 275).
link("194", "91").
streetOnRoute("186", "R133", 235, 295).
link("91", "186").
streetOnRoute("[109[0]|109[1][0]+20003|109[1][1]]", "R133", 240, 325).
link("186", "[109[0]|109[1][0]+20003|109[1][1]]").
streetOnRoute("120", "R133", 250, 335).
link("[109[0]|109[1][0]+20003|109[1][1]]", "120").
streetOnRoute("117", "R133", 265, 350).
link("120", "117").
streetOnRoute("209", "R133", 310, 395).
link("117", "209").
route("R134").
streetOnRoute("15", "R134", 0, 0).
streetOnRoute("24", "R134", 40, 75).
link("15", "24").
streetOnRoute("[22|59]", "R134", 55, 90).
link("24", "[22|59]").
streetOnRoute("(53cd|53[0])", "R134", 70, 110).
link("[22|59]", "(53cd|53[0])").
streetOnRoute("78[1][1]", "R134", 75, 130).
link("(53cd|53[0])", "78[1][1]").
streetOnRoute("[189[0]|189[1][0]+20000|189[1][1]]", "R134", 85, 140).
link("78[1][1]", "[189[0]|189[1][0]+20000|189[1][1]]").
streetOnRoute("191", "R134", 135, 190).
link("[189[0]|189[1][0]+20000|189[1][1]]", "191").
streetOnRoute("[17|71]", "R134", 180, 235).
link("191", "[17|71]").
streetOnRoute("86", "R134", 230, 290).
link("[17|71]", "86").
route("R135").
streetOnRoute("[22|59]", "R135", 0, 0).
streetOnRoute("(53cd|53[0])", "R135", 15, 35).
link("[22|59]", "(53cd|53[0])").
streetOnRoute("78[1][1]", "R135", 20, 55).
link("(53cd|53[0])", "78[1][1]").
streetOnRoute("[189[0]|189[1][0]+20000|189[1][1]]", "R135", 30, 65).
link("78[1][1]", "[189[0]|189[1][0]+20000|189[1][1]]").
streetOnRoute("191", "R135", 80, 120).
link("[189[0]|189[1][0]+20000|189[1][1]]", "191").
streetOnRoute("[17|71]", "R135", 125, 165).
link("191", "[17|71]").
streetOnRoute("86", "R135", 175, 220).
link("[17|71]", "86").
route("R136").
streetOnRoute("[109[0]|109[1][0]+20003|109[1][1]]", "R136", 0, 0).
streetOnRoute("120", "R136", 10, 35).
link("[109[0]|109[1][0]+20003|109[1][1]]", "120").
streetOnRoute("117", "R136", 25, 50).
link("120", "117").
streetOnRoute("209", "R136", 70, 115).
link("117", "209").
route("R137").
streetOnRoute("224[1]", "R137", 0, 0).
streetOnRoute("[181|18]", "R137", 15, 90).
link("224[1]", "[181|18]").
streetOnRoute("69", "R137", 55, 340).
link("[181|18]", "69").
streetOnRoute("161", "R137", 100, 435).
link("69", "161").
streetOnRoute("122", "R137", 120, 460).
link("161", "122").
streetOnRoute("[3|2]", "R137", 140, 515).
link("122", "[3|2]").
streetOnRoute("[202|34]", "R137", 175, 555).
link("[3|2]", "[202|34]").
streetOnRoute("134", "R137", 225, 605).
link("[202|34]", "134").
route("R138").
streetOnRoute("[210|43[0]]", "R138", 0, 0).
streetOnRoute("118", "R138", 65, 185).
link("[210|43[0]]", "118").
streetOnRoute("65", "R138", 80, 245).
link("118", "65").
streetOnRoute("[200|60]", "R138", 90, 290).
link("65", "[200|60]").
route("R139").
streetOnRoute("[87[0]|20001+87[1][0]|87[1][1]]", "R139", 0, 0).
streetOnRoute("m90", "R139", 5, 35).
link("[87[0]|20001+87[1][0]|87[1][1]]", "m90").
streetOnRoute("171", "R139", 10, 50).
link("m90", "171").
streetOnRoute("161", "R139", 55, 95).
link("171", "161").
streetOnRoute("194", "R139", 75, 120).
link("161", "194").
streetOnRoute("91", "R139", 90, 135).
link("194", "91").
streetOnRoute("186", "R139", 95, 155).
link("91", "186").
streetOnRoute("[109[0]|109[1][0]+20003|109[1][1]]", "R139", 100, 185).
link("186", "[109[0]|109[1][0]+20003|109[1][1]]").
streetOnRoute("120", "R139", 110, 195).
link("[109[0]|109[1][0]+20003|109[1][1]]", "120").
streetOnRoute("117", "R139", 125, 210).
link("120", "117").
streetOnRoute("209", "R139", 170, 260).
link("117", "209").
route("R140").
streetOnRoute("42", "R140", 0, 0).
streetOnRoute("39", "R140", 5, 65).
link("42", "39").
streetOnRoute("35", "R140", 10, 85).
link("39", "35").
streetOnRoute("38", "R140", 20, 140).
link("35", "38").
streetOnRoute("50", "R140", 35, 200).
link("38", "50").
streetOnRoute("19", "R140", 45, 215).
link("50", "19").
streetOnRoute("[22|59]", "R140", 55, 250).
link("19", "[22|59]").
streetOnRoute("(53cd|53[0]|53[1][0]|53[1][1][0]|77[1][0])", "R140", 70, 270).
link("[22|59]", "(53cd|53[0]|53[1][0]|53[1][1][0]|77[1][0])").
streetOnRoute("77[1][1]", "R140", 75, 280).
link("(53cd|53[0]|53[1][0]|53[1][1][0]|77[1][0])", "77[1][1]").
route("R141").
streetOnRoute("79", "R141", 0, 0).
streetOnRoute("[68|11]", "R141", 15, 15).
link("79", "[68|11]").
streetOnRoute("84", "R141", 55, 60).
link("[68|11]", "84").
streetOnRoute("180", "R141", 70, 80).
link("84", "180").
route("R142").
streetOnRoute("57[0]", "R142", 0, 0).
streetOnRoute("57[1]", "R142", 15, 85).
link("57[0]", "57[1]").
streetOnRoute("62", "R142", 20, 100).
link("57[1]", "62").
streetOnRoute("159", "R142", 40, 190).
link("62", "159").
streetOnRoute("42", "R142", 60, 245).
link("159", "42").
streetOnRoute("39", "R142", 65, 265).
link("42", "39").
streetOnRoute("35", "R142", 70, 285).
link("39", "35").
streetOnRoute("38", "R142", 80, 340).
link("35", "38").
streetOnRoute("33", "R142", 95, 400).
link("38", "33").
streetOnRoute("10", "R142", 105, 430).
link("33", "10").
route("R143").
streetOnRoute("224[0]", "R143", 0, 0).
streetOnRoute("224[1]", "R143", 25, 145).
link("224[0]", "224[1]").
streetOnRoute("[181|18]", "R143", 40, 205).
link("224[1]", "[181|18]").
streetOnRoute("69", "R143", 80, 365).
link("[181|18]", "69").
streetOnRoute("161", "R143", 125, 460).
link("69", "161").
streetOnRoute("122", "R143", 145, 485).
link("161", "122").
streetOnRoute("[3|2]", "R143", 165, 540).
link("122", "[3|2]").
streetOnRoute("[202|34]", "R143", 200, 580).
link("[3|2]", "[202|34]").
streetOnRoute("113", "R143", 250, 630).
link("[202|34]", "113").
streetOnRoute("209", "R143", 290, 670).
link("113", "209").
route("R144").
streetOnRoute("91", "R144", 0, 0).
streetOnRoute("186", "R144", 5, 95).
link("91", "186").
streetOnRoute("[109[0]|109[1][0]+20003|109[1][1]]", "R144", 10, 125).
link("186", "[109[0]|109[1][0]+20003|109[1][1]]").
streetOnRoute("[116|46]", "R144", 20, 160).
link("[109[0]|109[1][0]+20003|109[1][1]]", "[116|46]").
streetOnRoute("201", "R144", 65, 210).
link("[116|46]", "201").
streetOnRoute("201c", "R144", 115, 1410).
link("201", "201c").
streetOnRoute("204a[0]", "R144", 150, 1445).
link("201c", "204a[0]").
streetOnRoute("124", "R144", 200, 1565).
link("204a[0]", "124").
route("R145").
streetOnRoute("(53cd|53[0])", "R145", 0, 0).
streetOnRoute("78[1][1]", "R145", 5, 20).
link("(53cd|53[0])", "78[1][1]").
streetOnRoute("[189[0]|189[1][0]+20000|189[1][1]]", "R145", 15, 30).
link("78[1][1]", "[189[0]|189[1][0]+20000|189[1][1]]").
streetOnRoute("191", "R145", 65, 85).
link("[189[0]|189[1][0]+20000|189[1][1]]", "191").
streetOnRoute("69", "R145", 110, 395).
link("191", "69").
streetOnRoute("161", "R145", 155, 490).
link("69", "161").
streetOnRoute("122", "R145", 175, 515).
link("161", "122").
streetOnRoute("1b", "R145", 195, 1560).
link("122", "1b").
streetOnRoute("1", "R145", 230, 2400).
link("1b", "1").
streetOnRoute("204a[0]", "R145", 265, 2435).
link("1", "204a[0]").
streetOnRoute("204b[0]", "R145", 315, 2555).
link("204a[0]", "204b[0]").
streetOnRoute("54", "R145", 320, 2560).
link("204b[0]", "54").
route("R146").
streetOnRoute("118", "R146", 0, 0).
streetOnRoute("65", "R146", 15, 60).
link("118", "65").
streetOnRoute("57[0]", "R146", 25, 105).
link("65", "57[0]").
streetOnRoute("57[1]", "R146", 40, 190).
link("57[0]", "57[1]").
streetOnRoute("62", "R146", 45, 205).
link("57[1]", "62").
streetOnRoute("159", "R146", 65, 295).
link("62", "159").
streetOnRoute("42", "R146", 85, 350).
link("159", "42").
streetOnRoute("39", "R146", 90, 370).
link("42", "39").
streetOnRoute("35", "R146", 95, 390).
link("39", "35").
streetOnRoute("38", "R146", 105, 445).
link("35", "38").
streetOnRoute("50", "R146", 120, 505).
link("38", "50").
streetOnRoute("19", "R146", 130, 520).
link("50", "19").
streetOnRoute("[22|59]", "R146", 140, 555).
link("19", "[22|59]").
streetOnRoute("(53cd|53[0])", "R146", 155, 575).
link("[22|59]", "(53cd|53[0])").
streetOnRoute("78[1][1]", "R146", 160, 595).
link("(53cd|53[0])", "78[1][1]").
streetOnRoute("[189[0]|189[1][0]+20000|189[1][1]]", "R146", 170, 605).
link("78[1][1]", "[189[0]|189[1][0]+20000|189[1][1]]").
streetOnRoute("191", "R146", 220, 655).
link("[189[0]|189[1][0]+20000|189[1][1]]", "191").
streetOnRoute("[17|71]", "R146", 265, 700).
link("191", "[17|71]").
streetOnRoute("84", "R146", 315, 755).
link("[17|71]", "84").
streetOnRoute("180", "R146", 330, 775).
link("84", "180").
route("R147").
streetOnRoute("74", "R147", 0, 0).
streetOnRoute("72[1]", "R147", 55, 895).
link("74", "72[1]").
streetOnRoute("69", "R147", 90, 935).
link("72[1]", "69").
streetOnRoute("161", "R147", 135, 1030).
link("69", "161").
streetOnRoute("122", "R147", 155, 1055).
link("161", "122").
streetOnRoute("[3|2]", "R147", 175, 1110).
link("122", "[3|2]").
streetOnRoute("[202|34]", "R147", 210, 1150).
link("[3|2]", "[202|34]").
streetOnRoute("113", "R147", 260, 1200).
link("[202|34]", "113").
streetOnRoute("209", "R147", 300, 1240).
link("113", "209").
route("R148").
streetOnRoute("[181|18]", "R148", 0, 0).
streetOnRoute("69", "R148", 40, 325).
link("[181|18]", "69").
streetOnRoute("161", "R148", 85, 420).
link("69", "161").
streetOnRoute("122", "R148", 105, 445).
link("161", "122").
streetOnRoute("1b", "R148", 125, 1455).
link("122", "1b").
streetOnRoute("1", "R148", 160, 2295).
link("1b", "1").
streetOnRoute("204a[0]", "R148", 195, 2330).
link("1", "204a[0]").
streetOnRoute("204b[0]", "R148", 245, 2450).
link("204a[0]", "204b[0]").
streetOnRoute("54", "R148", 250, 2455).
link("204b[0]", "54").
route("R149").
streetOnRoute("119", "R149", 0, 0).
streetOnRoute("[116|46]", "R149", 15, 15).
link("119", "[116|46]").
streetOnRoute("201", "R149", 60, 195).
link("[116|46]", "201").
streetOnRoute("201c", "R149", 110, 1405).
link("201", "201c").
streetOnRoute("204a[0]", "R149", 145, 1440).
link("201c", "204a[0]").
streetOnRoute("204b[0]", "R149", 195, 1560).
link("204a[0]", "204b[0]").
streetOnRoute("54", "R149", 200, 1565).
link("204b[0]", "54").
route("R150").
streetOnRoute("159", "R150", 0, 0).
streetOnRoute("42", "R150", 20, 80).
link("159", "42").
streetOnRoute("39", "R150", 25, 100).
link("42", "39").
streetOnRoute("35", "R150", 30, 120).
link("39", "35").
streetOnRoute("38", "R150", 40, 175).
link("35", "38").
streetOnRoute("33", "R150", 55, 235).
link("38", "33").
streetOnRoute("10", "R150", 65, 265).
link("33", "10").
route("R151").
streetOnRoute("42", "R151", 0, 0).
streetOnRoute("39", "R151", 5, 65).
link("42", "39").
streetOnRoute("35", "R151", 10, 85).
link("39", "35").
streetOnRoute("38", "R151", 20, 140).
link("35", "38").
streetOnRoute("15", "R151", 35, 200).
link("38", "15").
streetOnRoute("14", "R151", 75, 275).
link("15", "14").
route("R152").
streetOnRoute("224[0]", "R152", 0, 0).
streetOnRoute("224[1]", "R152", 25, 145).
link("224[0]", "224[1]").
streetOnRoute("[181|18]", "R152", 40, 205).
link("224[1]", "[181|18]").
streetOnRoute("[17|71]", "R152", 80, 280).
link("[181|18]", "[17|71]").
streetOnRoute("67", "R152", 130, 335).
link("[17|71]", "67").
streetOnRoute("[80|127]", "R152", 140, 350).
link("67", "[80|127]").
streetOnRoute("(77[1][0]|77ab|77bc)", "R152", 155, 385).
link("[80|127]", "(77[1][0]|77ab|77bc)").
streetOnRoute("21a", "R152", 160, 390).
link("(77[1][0]|77ab|77bc)", "21a").
streetOnRoute("21b", "R152", 165, 395).
link("21a", "21b").
streetOnRoute("103", "R152", 180, 410).
link("21b", "103").
streetOnRoute("14", "R152", 225, 455).
link("103", "14").
route("R153").
streetOnRoute("[17|71]", "R153", 0, 0).
streetOnRoute("84", "R153", 50, 55).
link("[17|71]", "84").
streetOnRoute("180", "R153", 65, 75).
link("84", "180").
route("R154").
streetOnRoute("[17|71]", "R154", 0, 0).
streetOnRoute("86", "R154", 50, 55).
link("[17|71]", "86").
route("R155").
streetOnRoute("197", "R155", 0, 0).
streetOnRoute("[109[0]|109[1][0]+20003|109[1][1]]", "R155", 20, 90).
link("197", "[109[0]|109[1][0]+20003|109[1][1]]").
streetOnRoute("[116|46]", "R155", 30, 125).
link("[109[0]|109[1][0]+20003|109[1][1]]", "[116|46]").
streetOnRoute("201", "R155", 75, 210).
link("[116|46]", "201").
streetOnRoute("201c", "R155", 125, 1420).
link("201", "201c").
streetOnRoute("204a[0]", "R155", 160, 1455).
link("201c", "204a[0]").
streetOnRoute("124", "R155", 210, 1575).
link("204a[0]", "124").
route("R156").
streetOnRoute("38", "R156", 0, 0).
streetOnRoute("50", "R156", 15, 60).
link("38", "50").
streetOnRoute("19", "R156", 25, 75).
link("50", "19").
streetOnRoute("[22|59]", "R156", 35, 110).
link("19", "[22|59]").
streetOnRoute("(53cd|53[0]|53[1][0])", "R156", 50, 130).
link("[22|59]", "(53cd|53[0]|53[1][0])").
streetOnRoute("79", "R156", 55, 150).
link("(53cd|53[0]|53[1][0])", "79").
streetOnRoute("[68|11]", "R156", 70, 165).
link("79", "[68|11]").
streetOnRoute("86", "R156", 110, 205).
link("[68|11]", "86").
route("R157").
streetOnRoute("[22|59]", "R157", 0, 0).
streetOnRoute("(53cd|53[0])", "R157", 15, 35).
link("[22|59]", "(53cd|53[0])").
streetOnRoute("78[1][1]", "R157", 20, 55).
link("(53cd|53[0])", "78[1][1]").
streetOnRoute("[189[0]|189[1][0]+20000|189[1][1]]", "R157", 30, 65).
link("78[1][1]", "[189[0]|189[1][0]+20000|189[1][1]]").
streetOnRoute("191", "R157", 80, 120).
link("[189[0]|189[1][0]+20000|189[1][1]]", "191").
streetOnRoute("69", "R157", 125, 410).
link("191", "69").
streetOnRoute("161", "R157", 170, 505).
link("69", "161").
streetOnRoute("122", "R157", 190, 530).
link("161", "122").
streetOnRoute("1b", "R157", 210, 1925).
link("122", "1b").
streetOnRoute("1", "R157", 245, 2765).
link("1b", "1").
streetOnRoute("204a[0]", "R157", 280, 2800).
link("1", "204a[0]").
streetOnRoute("204b[0]", "R157", 330, 2920).
link("204a[0]", "204b[0]").
streetOnRoute("54", "R157", 335, 2925).
link("204b[0]", "54").
route("R158").
streetOnRoute("159", "R158", 0, 0).
streetOnRoute("42", "R158", 20, 80).
link("159", "42").
streetOnRoute("39", "R158", 25, 100).
link("42", "39").
streetOnRoute("35", "R158", 30, 120).
link("39", "35").
streetOnRoute("38", "R158", 40, 175).
link("35", "38").
streetOnRoute("15", "R158", 55, 235).
link("38", "15").
streetOnRoute("24", "R158", 95, 310).
link("15", "24").
streetOnRoute("[22|59]", "R158", 110, 325).
link("24", "[22|59]").
streetOnRoute("(53cd|53[0])", "R158", 125, 345).
link("[22|59]", "(53cd|53[0])").
streetOnRoute("78[1][1]", "R158", 130, 365).
link("(53cd|53[0])", "78[1][1]").
streetOnRoute("[189[0]|189[1][0]+20000|189[1][1]]", "R158", 140, 375).
link("78[1][1]", "[189[0]|189[1][0]+20000|189[1][1]]").
streetOnRoute("191", "R158", 190, 425).
link("[189[0]|189[1][0]+20000|189[1][1]]", "191").
streetOnRoute("[17|71]", "R158", 235, 470).
link("191", "[17|71]").
streetOnRoute("84", "R158", 285, 525).
link("[17|71]", "84").
streetOnRoute("180", "R158", 300, 545).
link("84", "180").
route("R159").
streetOnRoute("[22|59]", "R159", 0, 0).
streetOnRoute("(53cd|53[0]|53[1][0]|53[1][1][0]|77[1][0])", "R159", 15, 20).
link("[22|59]", "(53cd|53[0]|53[1][0]|53[1][1][0]|77[1][0])").
streetOnRoute("77[1][1]", "R159", 20, 30).
link("(53cd|53[0]|53[1][0]|53[1][1][0]|77[1][0])", "77[1][1]").
route("R160").
streetOnRoute("65", "R160", 0, 0).
streetOnRoute("57[0]", "R160", 10, 45).
link("65", "57[0]").
streetOnRoute("57[1]", "R160", 25, 130).
link("57[0]", "57[1]").
streetOnRoute("62", "R160", 30, 145).
link("57[1]", "62").
streetOnRoute("159", "R160", 50, 235).
link("62", "159").
streetOnRoute("42", "R160", 70, 290).
link("159", "42").
streetOnRoute("39", "R160", 75, 310).
link("42", "39").
streetOnRoute("35", "R160", 80, 330).
link("39", "35").
streetOnRoute("38", "R160", 90, 385).
link("35", "38").
streetOnRoute("15", "R160", 105, 445).
link("38", "15").
streetOnRoute("14", "R160", 145, 520).
link("15", "14").
route("R161").
streetOnRoute("224[1]", "R161", 0, 0).
streetOnRoute("[181|18]", "R161", 15, 90).
link("224[1]", "[181|18]").
streetOnRoute("69", "R161", 55, 340).
link("[181|18]", "69").
streetOnRoute("161", "R161", 100, 435).
link("69", "161").
streetOnRoute("122", "R161", 120, 460).
link("161", "122").
streetOnRoute("[3|2]", "R161", 140, 515).
link("122", "[3|2]").
streetOnRoute("[202|34]", "R161", 175, 555).
link("[3|2]", "[202|34]").
streetOnRoute("113", "R161", 225, 605).
link("[202|34]", "113").
streetOnRoute("209", "R161", 265, 645).
link("113", "209").
route("R162").
streetOnRoute("85", "R162", 0, 0).
streetOnRoute("72[0]", "R162", 60, 60).
link("85", "72[0]").
streetOnRoute("72[1]", "R162", 105, 825).
link("72[0]", "72[1]").
streetOnRoute("69", "R162", 140, 865).
link("72[1]", "69").
streetOnRoute("161", "R162", 185, 960).
link("69", "161").
streetOnRoute("122", "R162", 205, 985).
link("161", "122").
streetOnRoute("[3|2]", "R162", 225, 1040).
link("122", "[3|2]").
streetOnRoute("[202|34]", "R162", 260, 1080).
link("[3|2]", "[202|34]").
streetOnRoute("134", "R162", 310, 1130).
link("[202|34]", "134").
route("R163").
streetOnRoute("131", "R163", 0, 0).
streetOnRoute("119", "R163", 30, 30).
link("131", "119").
streetOnRoute("[116|46]", "R163", 45, 45).
link("119", "[116|46]").
streetOnRoute("201", "R163", 90, 225).
link("[116|46]", "201").
streetOnRoute("201c", "R163", 140, 1435).
link("201", "201c").
streetOnRoute("204a[0]", "R163", 175, 1470).
link("201c", "204a[0]").
streetOnRoute("204b[0]", "R163", 225, 1590).
link("204a[0]", "204b[0]").
streetOnRoute("54", "R163", 230, 1595).
link("204b[0]", "54").
route("R164").
streetOnRoute("[181|18]", "R164", 0, 0).
streetOnRoute("[17|71]", "R164", 40, 75).
link("[181|18]", "[17|71]").
streetOnRoute("67", "R164", 90, 130).
link("[17|71]", "67").
streetOnRoute("[80|127]", "R164", 100, 145).
link("67", "[80|127]").
streetOnRoute("(77[1][0]|77ab|77bc|77cd|53cd|53[0])", "R164", 115, 180).
link("[80|127]", "(77[1][0]|77ab|77bc|77cd|53cd|53[0])").
streetOnRoute("78[1][1]", "R164", 120, 185).
link("(77[1][0]|77ab|77bc|77cd|53cd|53[0])", "78[1][1]").
streetOnRoute("75", "R164", 130, 195).
link("78[1][1]", "75").
streetOnRoute("51", "R164", 140, 205).
link("75", "51").
streetOnRoute("19", "R164", 150, 215).
link("51", "19").
streetOnRoute("103", "R164", 160, 250).
link("19", "103").
streetOnRoute("14", "R164", 205, 295).
link("103", "14").
route("R165").
streetOnRoute("201", "R165", 0, 0).
streetOnRoute("201c", "R165", 50, 1345).
link("201", "201c").
streetOnRoute("204a[0]", "R165", 85, 1380).
link("201c", "204a[0]").
streetOnRoute("204b[0]", "R165", 135, 1500).
link("204a[0]", "204b[0]").
streetOnRoute("54", "R165", 140, 1505).
link("204b[0]", "54").
route("R166").
streetOnRoute("119", "R166", 0, 0).
streetOnRoute("[116|46]", "R166", 15, 15).
link("119", "[116|46]").
streetOnRoute("201", "R166", 60, 195).
link("[116|46]", "201").
streetOnRoute("201c", "R166", 110, 1405).
link("201", "201c").
streetOnRoute("204a[0]", "R166", 145, 1440).
link("201c", "204a[0]").
streetOnRoute("124", "R166", 195, 1560).
link("204a[0]", "124").
route("R167").
streetOnRoute("131", "R167", 0, 0).
streetOnRoute("65", "R167", 30, 75).
link("131", "65").
streetOnRoute("[200|60]", "R167", 40, 120).
link("65", "[200|60]").
route("R168").
streetOnRoute("58[1]", "R168", 0, 0).
streetOnRoute("66", "R168", 15, 15).
link("58[1]", "66").
streetOnRoute("117", "R168", 25, 25).
link("66", "117").
streetOnRoute("209", "R168", 70, 90).
link("117", "209").
route("R169").
streetOnRoute("85", "R169", 0, 0).
streetOnRoute("72[0]", "R169", 60, 60).
link("85", "72[0]").
streetOnRoute("72[1]", "R169", 105, 825).
link("72[0]", "72[1]").
streetOnRoute("69", "R169", 140, 865).
link("72[1]", "69").
streetOnRoute("161", "R169", 185, 960).
link("69", "161").
streetOnRoute("194", "R169", 205, 985).
link("161", "194").
streetOnRoute("91", "R169", 220, 1000).
link("194", "91").
streetOnRoute("186", "R169", 225, 1020).
link("91", "186").
streetOnRoute("[109[0]|109[1][0]+20003|109[1][1]]", "R169", 230, 1050).
link("186", "[109[0]|109[1][0]+20003|109[1][1]]").
streetOnRoute("[116|46]", "R169", 240, 1060).
link("[109[0]|109[1][0]+20003|109[1][1]]", "[116|46]").
streetOnRoute("201", "R169", 285, 1105).
link("[116|46]", "201").
streetOnRoute("201c", "R169", 335, 1155).
link("201", "201c").
streetOnRoute("204a[0]", "R169", 370, 1190).
link("201c", "204a[0]").
streetOnRoute("204b[0]", "R169", 420, 1270).
link("204a[0]", "204b[0]").
streetOnRoute("54", "R169", 425, 1275).
link("204b[0]", "54").
route("R170").
streetOnRoute("206", "R170", 0, 0).
streetOnRoute("32", "R170", 10, 10).
link("206", "32").
streetOnRoute("40", "R170", 25, 25).
link("32", "40").
streetOnRoute("153", "R170", 30, 30).
link("40", "153").
streetOnRoute("[87[0]|20001+87[1][0]|87[1][1]]", "R170", 95, 115).
link("153", "[87[0]|20001+87[1][0]|87[1][1]]").
streetOnRoute("m90", "R170", 100, 135).
link("[87[0]|20001+87[1][0]|87[1][1]]", "m90").
streetOnRoute("[89[0]|20002+89[1][0]|89[1][1]]", "R170", 105, 150).
link("m90", "[89[0]|20002+89[1][0]|89[1][1]]").
streetOnRoute("91", "R170", 120, 165).
link("[89[0]|20002+89[1][0]|89[1][1]]", "91").
streetOnRoute("186", "R170", 125, 185).
link("91", "186").
streetOnRoute("[109[0]|109[1][0]+20003|109[1][1]]", "R170", 130, 215).
link("186", "[109[0]|109[1][0]+20003|109[1][1]]").
streetOnRoute("120", "R170", 140, 225).
link("[109[0]|109[1][0]+20003|109[1][1]]", "120").
streetOnRoute("117", "R170", 155, 240).
link("120", "117").
streetOnRoute("209", "R170", 200, 290).
link("117", "209").
route("R171").
streetOnRoute("[189[0]|189[1][0]+20000|189[1][1]]", "R171", 0, 0).
streetOnRoute("188", "R171", 50, 55).
link("[189[0]|189[1][0]+20000|189[1][1]]", "188").
streetOnRoute("[87[0]|20001+87[1][0]|87[1][1]]", "R171", 90, 110).
link("188", "[87[0]|20001+87[1][0]|87[1][1]]").
streetOnRoute("m90", "R171", 95, 130).
link("[87[0]|20001+87[1][0]|87[1][1]]", "m90").
streetOnRoute("[89[0]|20002+89[1][0]|89[1][1]]", "R171", 100, 145).
link("m90", "[89[0]|20002+89[1][0]|89[1][1]]").
streetOnRoute("91", "R171", 115, 160).
link("[89[0]|20002+89[1][0]|89[1][1]]", "91").
streetOnRoute("186", "R171", 120, 180).
link("91", "186").
streetOnRoute("[109[0]|109[1][0]+20003|109[1][1]]", "R171", 125, 210).
link("186", "[109[0]|109[1][0]+20003|109[1][1]]").
streetOnRoute("[116|46]", "R171", 135, 220).
link("[109[0]|109[1][0]+20003|109[1][1]]", "[116|46]").
streetOnRoute("201", "R171", 180, 265).
link("[116|46]", "201").
streetOnRoute("201c", "R171", 230, 720).
link("201", "201c").
streetOnRoute("204a[0]", "R171", 265, 755).
link("201c", "204a[0]").
streetOnRoute("204b[0]", "R171", 315, 875).
link("204a[0]", "204b[0]").
streetOnRoute("54", "R171", 320, 880).
link("204b[0]", "54").
route("R172").
streetOnRoute("72[0]", "R172", 0, 0).
streetOnRoute("72[1]", "R172", 45, 885).
link("72[0]", "72[1]").
streetOnRoute("69", "R172", 80, 925).
link("72[1]", "69").
streetOnRoute("161", "R172", 125, 1020).
link("69", "161").
streetOnRoute("122", "R172", 145, 1045).
link("161", "122").
streetOnRoute("1b", "R172", 165, 1530).
link("122", "1b").
streetOnRoute("1", "R172", 200, 2370).
link("1b", "1").
streetOnRoute("204a[0]", "R172", 235, 2405).
link("1", "204a[0]").
streetOnRoute("124", "R172", 285, 2525).
link("204a[0]", "124").
route("R173").
streetOnRoute("[211|45]", "R173", 0, 0).
streetOnRoute("44", "R173", 15, 15).
link("[211|45]", "44").
streetOnRoute("38", "R173", 30, 90).
link("44", "38").
streetOnRoute("50", "R173", 45, 150).
link("38", "50").
streetOnRoute("19", "R173", 55, 165).
link("50", "19").
streetOnRoute("[22|59]", "R173", 65, 200).
link("19", "[22|59]").
streetOnRoute("(53cd|53[0]|53[1][0])", "R173", 80, 220).
link("[22|59]", "(53cd|53[0]|53[1][0])").
streetOnRoute("79", "R173", 85, 240).
link("(53cd|53[0]|53[1][0])", "79").
streetOnRoute("[68|11]", "R173", 100, 255).
link("79", "[68|11]").
streetOnRoute("86", "R173", 140, 295).
link("[68|11]", "86").
route("R174").
streetOnRoute("201c", "R174", 0, 170).
streetOnRoute("204a[0]", "R174", 35, 275).
link("201c", "204a[0]").
streetOnRoute("124", "R174", 85, 895).
link("204a[0]", "124").
route("R175").
streetOnRoute("84", "R175", 0, 0).
streetOnRoute("180", "R175", 15, 20).
link("84", "180").
route("R176").
streetOnRoute("16", "R176", 0, 0).
streetOnRoute("37", "R176", 10, 10).
link("16", "37").
streetOnRoute("36", "R176", 25, 25).
link("37", "36").
streetOnRoute("40", "R176", 35, 35).
link("36", "40").
streetOnRoute("41", "R176", 40, 40).
link("40", "41").
streetOnRoute("160", "R176", 45, 45).
link("41", "160").
streetOnRoute("61", "R176", 65, 65).
link("160", "61").
streetOnRoute("58[0]", "R176", 85, 85).
link("61", "58[0]").
streetOnRoute("58[1]", "R176", 90, 90).
link("58[0]", "58[1]").
streetOnRoute("[200|60]", "R176", 105, 105).
link("58[1]", "[200|60]").
destination("Pepoli_11_2093", "124").
destination("Pepoli_12_1689", "180").
destination("Pepoli_11_1408", "124").
destination("XXI_Aprile_94_630", "54").
destination("XXI_Aprile_102_851", "204[1][1]").
destination("Pepoli_11_1894", "124").
destination("Pepoli_12_1663", "180").
destination("Pepoli_11_1929", "124").
destination("Pepoli_12_1252", "180").
destination("Vittorio_Veneto_2_601", "77[1][1]").
destination("Pepoli_11_1567", "124").
destination("XXI_Aprile_1_999", "86").
destination("XXI_Aprile_7_746", "209").
destination("Pepoli_11_1788", "124").
destination("XXI_Aprile_7_770", "209").
destination("Vittorio_Veneto_2_645", "77[1][1]").
destination("Pepoli_12_1506", "180").
destination("Vittorio_Veneto_1_584", "86").
destination("Pepoli_3_1596", "14").
destination("XXI_Aprile_9_857", "54").
destination("Togliatti_10_596", "204[1][1]").
destination("Togliatti_10_673", "204[1][1]").
destination("Pepoli_11_1970", "124").
destination("Pepoli_2_1127", "77[1][1]").
destination("XXI_Aprile_7_819", "209").
destination("Pepoli_11_1825", "124").
destination("Vittorio_Veneto_10_374", "204[1][1]").
destination("XXI_Aprile_113_642", "124").
destination("Audinot_1_160", "86").
destination("Pepoli_3_1624", "10").
destination("Vittorio_Veneto_10_653", "204[1][1]").
destination("Vittorio_Veneto_2_605", "77[1][1]").
destination("Togliatti_10_730", "204[1][1]").
destination("Vittorio_Veneto_1_660", "86").
destination("Vittorio_Veneto_2_552", "77[1][1]").
destination("XXI_Aprile_104_773", "204[1][1]").
destination("Togliatti_11_658", "124").
destination("Togliatti_10_585", "204[1][1]").
destination("Vittorio_Veneto_82_504", "134").
destination("Costa_50_1365", "[200|60]").
destination("Pepoli_11_1687", "124").
destination("XXI_Aprile_102_627", "204[1][1]").
destination("Pepoli_11_1806", "124").
destination("Togliatti_10_628", "204[1][1]").
destination("XXI_Aprile_12_954", "180").
destination("XXI_Aprile_7_760", "209").
destination("XXI_Aprile_7_928", "209").
destination("Costa_200_1218", "204[1][1]").
destination("XXI_Aprile_1_983", "86").
destination("Costa_11_1214", "124").
destination("Pepoli_3_1472", "14").
destination("Pepoli_3_1035", "14").
destination("Vittorio_Veneto_2_627", "77[1][1]").
destination("Vittorio_Veneto_1_641", "86").
destination("Vittorio_Veneto_2_575", "77[1][1]").
destination("Togliatti_10_616", "204[1][1]").
destination("Vittorio_Veneto_10_481", "204[1][1]").
destination("Togliatti_10_635", "204[1][1]").
destination("XXI_Aprile_7_791", "209").
destination("Togliatti_10_710", "204[1][1]").
destination("Vittorio_Veneto_10_503", "204[1][1]").
destination("Pepoli_11_1947", "124").
destination("Pepoli_2_1377", "77[1][1]").
destination("Costa_200_1327", "204[1][1]").
destination("Pepoli_11_1954", "124").
destination("Togliatti_10_717", "204[1][1]").
destination("Vittorio_Veneto_1_586", "86").
destination("Vittorio_Veneto_2_593", "77[1][1]").
destination("Togliatti_10_663", "204[1][1]").
destination("Pepoli_5_1480", "[200|60]").
destination("Togliatti_9_575", "54").
destination("Pepoli_11_2058", "124").
destination("Togliatti_10_688", "204[1][1]").
destination("XXI_Aprile_93_822", "54").
destination("Togliatti_71_722", "209").
destination("XXI_Aprile_94_964", "54").
destination("Pepoli_11_1867", "124").
destination("Togliatti_9_650", "54").
destination("Costa_70_1368", "209").
destination("Costa_200_505", "204[1][1]").
destination("Pepoli_11_2054", "124").
destination("Pepoli_11_1643", "124").
destination("Togliatti_10_711", "204[1][1]").
destination("Pepoli_12_1427", "180").
destination("XXI_Aprile_7_1010", "209").
destination("Vittorio_Veneto_1_620", "86").
destination("Pepoli_11_1964", "124").
destination("Pepoli_11_2052", "124").
destination("Pepoli_12_939", "180").
destination("Pepoli_3_1402", "10").
destination("Pepoli_11_1871", "124").
destination("Vittorio_Veneto_1_591", "86").
destination("Pepoli_3_1122", "14").
destination("XXI_Aprile_113_823", "124").
destination("Pepoli_11_1011", "124").
destination("Pepoli_2_1571", "77[1][1]").
destination("Pepoli_3_978", "14").
destination("XXI_Aprile_7_926", "209").
destination("Pepoli_11_1760", "124").
destination("Vittorio_Veneto_82_628", "134").
destination("Costa_91_1119", "54").
destination("Costa_200_240", "204[1][1]").
destination("XXI_Aprile_7_758", "209").
destination("Pepoli_3_1140", "14").
destination("Vittorio_Veneto_1_606", "86").
destination("Vittorio_Veneto_1_551", "86").
destination("Pepoli_11_1739", "124").
destination("Pepoli_3_1443", "14").
destination("Vittorio_Veneto_2_587", "77[1][1]").
destination("Costa_11_827", "124").
destination("Costa_200_1230", "204[1][1]").
destination("Vittorio_Veneto_1_598", "86").
destination("Pepoli_11_1659", "124").
destination("Costa_200_1362", "204[1][1]").
destination("Vittorio_Veneto_1_621", "86").
destination("Togliatti_9_703", "54").
destination("Pepoli_11_1566", "124").
destination("XXI_Aprile_94_898", "54").
destination("Vittorio_Veneto_2_573", "77[1][1]").
destination("Vittorio_Veneto_10_672", "204[1][1]").
destination("Togliatti_10_731", "204[1][1]").
destination("Togliatti_11_692", "124").
destination("Pepoli_12_1442", "180").
destination("Costa_200_1262", "204[1][1]").
destination("Pepoli_2_1390", "77[1][1]").
destination("XXI_Aprile_93_359", "54").
destination("Pepoli_11_2042", "124").
destination("Pepoli_2_972", "77[1][1]").
destination("Pepoli_3_1148", "14").
destination("Pepoli_3_1177", "14").
destination("Vittorio_Veneto_10_656", "204[1][1]").
destination("Togliatti_9_466", "54").
destination("Pepoli_1_1359", "86").
destination("Pepoli_11_1938", "124").
destination("XXI_Aprile_93_838", "54").
destination("XXI_Aprile_5_881", "[200|60]").
destination("XXI_Aprile_93_889", "54").
destination("Costa_11_597", "124").
destination("XXI_Aprile_113_518", "124").
destination("Pepoli_11_1455", "124").
destination("Pepoli_2_1440", "77[1][1]").
destination("Costa_200_220", "204[1][1]").
destination("Togliatti_10_670", "204[1][1]").
destination("Togliatti_5_630", "[200|60]").
destination("Costa_200_1205", "204[1][1]").
destination("XXI_Aprile_7_830", "209").
destination("XXI_Aprile_92_949", "54").
destination("Pepoli_11_1499", "124").
destination("XXI_Aprile_7_806", "209").
destination("Togliatti_9_599", "54").
destination("XXI_Aprile_7_828", "209").
destination("Pepoli_11_1812", "124").
destination("Vittorio_Veneto_1_579", "86").
destination("Pepoli_11_2067", "124").
destination("Vittorio_Veneto_10_398", "204[1][1]").
destination("Vittorio_Veneto_1_600", "86").
destination("Pepoli_12_1672", "180").
destination("Togliatti_9_646", "54").
destination("XXI_Aprile_94_811", "54").
destination("Pepoli_11_2084", "124").
destination("XXI_Aprile_103_608", "204[1][1]").
destination("Togliatti_10_657", "204[1][1]").
destination("Vittorio_Veneto_1_566", "86").
destination("XXI_Aprile_7_736", "209").
destination("XXI_Aprile_7_875", "209").
destination("XXI_Aprile_7_978", "209").
destination("Pepoli_2_1090", "77[1][1]").
destination("XXI_Aprile_113_762", "124").
destination("Pepoli_12_1290", "180").
destination("Vittorio_Veneto_10_646", "204[1][1]").
destination("Pepoli_12_915", "180").
destination("XXI_Aprile_113_987", "124").
destination("XXI_Aprile_102_973", "204[1][1]").
destination("XXI_Aprile_7_976", "209").
destination("XXI_Aprile_9_150", "54").
destination("XXI_Aprile_7_908", "209").
destination("Pepoli_11_2022", "124").
destination("Togliatti_9_567", "54").
destination("XXI_Aprile_113_959", "124").
destination("Costa_200_1118", "204[1][1]").
destination("Togliatti_80_674", "134").
destination("XXI_Aprile_7_904", "209").
destination("Audinot_3_165", "14").
destination("Pepoli_12_1201", "180").
destination("XXI_Aprile_1_940", "86").
destination("Pepoli_11_1365", "124").
destination("XXI_Aprile_1_1006", "86").
destination("Pepoli_11_1667", "124").
destination("Vittorio_Veneto_10_589", "204[1][1]").
destination("Audinot_12_162", "180").
destination("Vittorio_Veneto_2_557", "77[1][1]").
destination("Pepoli_3_1001", "14").
destination("XXI_Aprile_94_899", "54").
destination("Pepoli_3_1541", "14").
destination("Costa_200_1224", "204[1][1]").
destination("Costa_200_501", "204[1][1]").
destination("Pepoli_11_2016", "124").
destination("Vittorio_Veneto_10_431", "204[1][1]").
destination("Costa_200_1281", "204[1][1]").
destination("Pepoli_11_1736", "124").
destination("Pepoli_11_2059", "124").
destination("Costa_200_303", "204[1][1]").
destination("Pepoli_11_1997", "124").
destination("Togliatti_71_723", "209").
destination("Costa_200_555", "204[1][1]").
destination("Pepoli_3_1088", "14").
destination("XXI_Aprile_93_653", "54").
destination("Pepoli_11_2028", "124").
destination("Pepoli_3_1082", "14").
destination("XXI_Aprile_7_698", "209").
destination("XXI_Aprile_7_932", "209").
destination("Pepoli_11_1945", "124").
destination("XXI_Aprile_94_339", "54").
destination("XXI_Aprile_94_514", "54").
destination("Vittorio_Veneto_10_387", "204[1][1]").
destination("Pepoli_3_1242", "14").
destination("Audinot_10_139", "204[1][1]").
destination("XXI_Aprile_7_1002", "209").
destination("Pepoli_11_1642", "124").
destination("Pepoli_3_1105", "14").
destination("Pepoli_12_899", "180").
destination("XXI_Aprile_7_722", "209").
destination("Audinot_7_163", "209").
destination("Audinot_10_159", "204[1][1]").
destination("XXI_Aprile_1_943", "86").
destination("Pepoli_11_2053", "124").
destination("Pepoli_3_1060", "14").
destination("XXI_Aprile_94_985", "54").
destination("Costa_200_1216", "204[1][1]").
destination("Pepoli_11_2095", "124").
destination("Pepoli_11_1547", "124").
destination("Audinot_7_164", "209").
destination("Pepoli_3_1560", "14").
destination("XXI_Aprile_102_906", "204[1][1]").
destination("XXI_Aprile_9_761", "54").
destination("Pepoli_11_1808", "124").
destination("Pepoli_1_1524", "86").
destination("XXI_Aprile_7_956", "209").
destination("Togliatti_9_665", "54").
destination("XXI_Aprile_7_962", "209").
destination("Pepoli_11_1865", "124").
destination("Vittorio_Veneto_1_570", "86").
destination("XXI_Aprile_94_756", "54").
destination("XXI_Aprile_7_901", "209").
destination("Togliatti_10_615", "204[1][1]").
destination("Vittorio_Veneto_2_603", "77[1][1]").
destination("Pepoli_11_1982", "124").
destination("Vittorio_Veneto_2_648", "77[1][1]").
destination("Costa_200_1100", "204[1][1]").
destination("Pepoli_12_1010", "180").
destination("Pepoli_3_1588", "14").
destination("Togliatti_9_621", "54").
destination("XXI_Aprile_94_799", "54").
destination("XXI_Aprile_104_961", "204[1][1]").
destination("XXI_Aprile_9_628", "54").
destination("Vittorio_Veneto_10_463", "204[1][1]").
destination("XXI_Aprile_113_788", "124").
destination("Pepoli_2_1194", "77[1][1]").
destination("Pepoli_11_1892", "124").
destination("Costa_200_1240", "204[1][1]").
destination("XXI_Aprile_113_706", "124").
destination("Vittorio_Veneto_2_594", "77[1][1]").
destination("XXI_Aprile_7_963", "209").
destination("XXI_Aprile_2_990", "77[1][1]").
destination("Pepoli_11_1967", "124").
destination("XXI_Aprile_93_950", "54").
destination("XXI_Aprile_93_834", "54").
destination("Togliatti_11_513", "124").
destination("XXI_Aprile_12_921", "180").
destination("Pepoli_11_1873", "124").
destination("XXI_Aprile_1_825", "86").
destination("Pepoli_11_1848", "124").
destination("XXI_Aprile_7_998", "209").
destination("Pepoli_12_911", "180").
destination("XXI_Aprile_114_275", "124").
destination("Pepoli_1_1676", "86").
destination("Pepoli_11_1712", "124").
destination("XXI_Aprile_7_952", "209").
destination("Pepoli_11_1853", "124").
destination("Costa_200_1257", "204[1][1]").
destination("Pepoli_12_1491", "180").
destination("Pepoli_3_981", "14").
destination("Togliatti_10_664", "204[1][1]").
destination("XXI_Aprile_9_981", "54").
destination("Costa_50_1369", "[200|60]").
destination("Togliatti_9_377", "54").
destination("Audinot_12_149", "180").
destination("Vittorio_Veneto_1_664", "86").
destination("XXI_Aprile_102_588", "204[1][1]").
destination("Togliatti_10_606", "204[1][1]").
destination("XXI_Aprile_94_364", "54").
destination("Togliatti_10_713", "204[1][1]").
destination("Togliatti_10_685", "204[1][1]").
destination("XXI_Aprile_7_831", "209").
destination("Togliatti_10_592", "204[1][1]").
destination("Pepoli_3_1077", "14").
destination("Pepoli_11_1840", "124").
destination("Vittorio_Veneto_2_623", "77[1][1]").
destination("Pepoli_3_1492", "14").
destination("Togliatti_10_734", "204[1][1]").
destination("Vittorio_Veneto_10_651", "204[1][1]").
destination("Pepoli_11_2062", "124").
destination("Pepoli_2_977", "77[1][1]").
destination("Pepoli_11_1869", "124").
destination("Togliatti_10_652", "204[1][1]").
destination("Pepoli_12_1287", "180").
destination("Pepoli_11_1735", "124").
destination("Costa_91_1150", "54").
destination("Pepoli_11_1990", "124").
destination("Togliatti_9_732", "54").
destination("Pepoli_12_953", "180").
destination("Togliatti_10_626", "204[1][1]").
destination("XXI_Aprile_102_726", "204[1][1]").
destination("Pepoli_2_1607", "77[1][1]").
destination("Pepoli_11_2017", "124").
destination("Audinot_12_156", "180").
destination("Costa_200_530", "204[1][1]").
destination("Costa_91_177", "54").
destination("XXI_Aprile_7_702", "209").
destination("Costa_700_1366", "209").
destination("Costa_70_1373", "209").
destination("Pepoli_12_1120", "180").
destination("Togliatti_11_506", "124").
destination("Vittorio_Veneto_2_654", "77[1][1]").
destination("Costa_200_546", "204[1][1]").
destination("XXI_Aprile_114_533", "124").
destination("XXI_Aprile_93_896", "54").
destination("XXI_Aprile_103_801", "204[1][1]").
destination("Pepoli_3_1163", "14").
destination("Vittorio_Veneto_73_559", "209").
destination("Costa_50_1356", "[200|60]").
destination("Pepoli_3_1469", "14").
destination("XXI_Aprile_7_740", "209").
destination("Pepoli_8_143", "134").
destination("XXI_Aprile_5_1005", "[200|60]").
destination("Pepoli_11_2047", "124").
destination("XXI_Aprile_7_989", "209").
destination("Pepoli_3_1598", "14").
destination("Pepoli_2_1697", "77[1][1]").
destination("XXI_Aprile_102_566", "204[1][1]").
destination("XXI_Aprile_7_755", "209").
destination("XXI_Aprile_5_993", "[200|60]").
destination("XXI_Aprile_7_1011", "209").
destination("XXI_Aprile_7_764", "209").
destination("Costa_200_917", "204[1][1]").
destination("XXI_Aprile_94_661", "54").
destination("XXI_Aprile_93_562", "54").
destination("Costa_50_1358", "[200|60]").
destination("Pepoli_11_2056", "124").
destination("XXI_Aprile_93_614", "54").
destination("Pepoli_11_2009", "124").
destination("XXI_Aprile_1_984", "86").
destination("Pepoli_12_1314", "180").
destination("Pepoli_12_1570", "180").
destination("Pepoli_11_1764", "124").
destination("XXI_Aprile_1_1004", "86").
destination("Pepoli_11_1870", "124").
destination("Pepoli_12_1608", "180").
destination("XXI_Aprile_7_842", "209").
destination("XXI_Aprile_8_737", "134").
destination("Vittorio_Veneto_1_638", "86").
destination("Vittorio_Veneto_82_595", "134").
destination("XXI_Aprile_7_1009", "209").
destination("Togliatti_10_671", "204[1][1]").
destination("XXI_Aprile_113_565", "124").
destination("XXI_Aprile_94_863", "54").
destination("Pepoli_3_1092", "14").
destination("XXI_Aprile_93_503", "54").
destination("Pepoli_11_1767", "124").
destination("XXI_Aprile_7_946", "209").
destination("Pepoli_5_1543", "[200|60]").
destination("Pepoli_11_1822", "124").
destination("Togliatti_11_681", "124").
destination("Pepoli_11_1973", "124").
destination("XXI_Aprile_7_982", "209").
destination("Costa_11_841", "124").
destination("XXI_Aprile_7_711", "209").
destination("Costa_91_166", "54").
destination("Pepoli_3_1261", "14").
destination("XXI_Aprile_7_902", "209").
destination("Vittorio_Veneto_73_583", "209").
destination("XXI_Aprile_7_919", "209").
destination("Pepoli_1_1519", "86").
destination("XXI_Aprile_93_189", "54").
destination("Togliatti_11_697", "124").
destination("XXI_Aprile_102_713", "204[1][1]").
destination("Pepoli_11_1857", "124").
destination("Togliatti_10_584", "204[1][1]").
destination("Pepoli_2_1217", "77[1][1]").
destination("XXI_Aprile_12_980", "180").
destination("Vittorio_Veneto_10_610", "204[1][1]").
destination("XXI_Aprile_7_792", "209").
destination("XXI_Aprile_9_497", "54").
destination("Togliatti_10_598", "204[1][1]").
destination("XXI_Aprile_12_986", "180").
destination("Pepoli_3_1392", "10").
destination("Pepoli_3_976", "14").
destination("Vittorio_Veneto_2_592", "77[1][1]").
destination("XXI_Aprile_7_957", "209").
destination("Pepoli_3_1602", "14").
destination("Pepoli_11_1651", "124").
destination("Vittorio_Veneto_10_669", "204[1][1]").
destination("Vittorio_Veneto_10_517", "204[1][1]").
destination("Vittorio_Veneto_73_670", "209").
destination("Vittorio_Veneto_10_535", "204[1][1]").
destination("XXI_Aprile_113_829", "124").
destination("Vittorio_Veneto_2_582", "77[1][1]").
destination("Pepoli_11_1931", "124").
destination("Vittorio_Veneto_10_291", "204[1][1]").
destination("XXI_Aprile_7_733", "209").
destination("Costa_91_273", "54").
destination("Pepoli_11_1839", "124").
destination("XXI_Aprile_7_915", "209").
destination("XXI_Aprile_93_991", "54").
destination("Pepoli_11_1514", "124").
destination("XXI_Aprile_8_744", "134").
destination("Pepoli_12_1482", "180").
destination("Pepoli_11_2024", "124").
destination("Vittorio_Veneto_1_597", "86").
destination("Vittorio_Veneto_73_618", "209").
destination("Pepoli_3_1176", "14").
destination("Togliatti_10_581", "204[1][1]").
destination("XXI_Aprile_1_942", "86").
destination("XXI_Aprile_7_951", "209").
destination("Togliatti_9_728", "54").
destination("XXI_Aprile_94_880", "54").
destination("Vittorio_Veneto_10_640", "204[1][1]").
destination("XXI_Aprile_8_864", "134").
destination("Pepoli_11_2098", "124").
destination("Costa_200_1357", "204[1][1]").
destination("Togliatti_9_620", "54").
destination("Pepoli_11_1827", "124").
destination("Vittorio_Veneto_10_413", "204[1][1]").
destination("Vittorio_Veneto_1_647", "86").
destination("Costa_200_256", "204[1][1]").
destination("XXI_Aprile_7_742", "209").
destination("Costa_200_1305", "204[1][1]").
destination("Togliatti_10_597", "204[1][1]").
destination("Pepoli_12_1531", "180").
destination("XXI_Aprile_7_723", "209").
destination("XXI_Aprile_7_913", "209").
destination("Togliatti_9_482", "54").
destination("XXI_Aprile_12_988", "180").
destination("XXI_Aprile_102_625", "204[1][1]").
destination("XXI_Aprile_103_370", "204[1][1]").
destination("Togliatti_10_682", "204[1][1]").
destination("Pepoli_11_1979", "124").
destination("Vittorio_Veneto_1_642", "86").
destination("XXI_Aprile_102_197", "204[1][1]").
destination("XXI_Aprile_7_979", "209").
destination("Pepoli_3_1132", "14").
destination("Togliatti_10_378", "204[1][1]").
destination("Pepoli_11_2050", "124").
destination("Vittorio_Veneto_1_655", "86").
destination("Costa_200_211", "204[1][1]").
destination("Costa_91_1261", "54").
destination("XXI_Aprile_93_287", "54").
destination("Vittorio_Veneto_10_499", "204[1][1]").
destination("Togliatti_10_601", "204[1][1]").
destination("Pepoli_11_1897", "124").
destination("Costa_50_1370", "[200|60]").
destination("Pepoli_11_2079", "124").
destination("Pepoli_12_961", "180").
destination("Pepoli_3_1265", "10").
destination("Costa_200_411", "204[1][1]").
destination("Vittorio_Veneto_10_404", "204[1][1]").
destination("Vittorio_Veneto_2_585", "77[1][1]").
destination("Togliatti_10_577", "204[1][1]").
destination("Togliatti_10_595", "204[1][1]").
destination("XXI_Aprile_94_841", "54").
destination("Pepoli_11_1313", "124").
destination("Pepoli_11_1616", "124").
destination("Pepoli_11_1829", "124").
destination("Pepoli_11_1861", "124").
destination("Pepoli_12_1649", "180").
destination("Togliatti_9_642", "54").
destination("XXI_Aprile_7_920", "209").
destination("Pepoli_3_1580", "10").
destination("XXI_Aprile_7_972", "209").
destination("XXI_Aprile_94_498", "54").
destination("Togliatti_10_727", "204[1][1]").
destination("Pepoli_3_1601", "10").
destination("Vittorio_Veneto_2_644", "77[1][1]").
destination("Togliatti_10_589", "204[1][1]").
destination("XXI_Aprile_1_840", "86").
destination("Pepoli_3_1185", "14").
destination("Costa_200_1287", "204[1][1]").
destination("Pepoli_3_1043", "14").
destination("XXI_Aprile_9_532", "54").
destination("Vittorio_Veneto_1_604", "86").
destination("Pepoli_11_1701", "124").
destination("Togliatti_10_486", "204[1][1]").
destination("XXI_Aprile_94_774", "54").
destination("Pepoli_3_1030", "14").
destination("Pepoli_3_1208", "14").
destination("Pepoli_11_1883", "124").
destination("Togliatti_10_602", "204[1][1]").
destination("Vittorio_Veneto_10_494", "204[1][1]").
destination("XXI_Aprile_7_794", "209").
destination("XXI_Aprile_7_749", "209").
destination("Vittorio_Veneto_2_563", "77[1][1]").
destination("Pepoli_12_1409", "180").
destination("Pepoli_3_1329", "10").
destination("Vittorio_Veneto_32_632", "14").
destination("XXI_Aprile_12_847", "180").
destination("Pepoli_12_901", "180").
destination("Pepoli_3_1089", "14").
destination("Pepoli_3_1494", "14").
destination("Pepoli_12_1410", "180").
destination("Pepoli_3_1074", "14").
destination("Togliatti_11_516", "124").
destination("Vittorio_Veneto_1_633", "86").
destination("Togliatti_10_578", "204[1][1]").
destination("Pepoli_11_138", "124").
destination("Togliatti_10_467", "204[1][1]").
destination("Togliatti_11_691", "124").
destination("Togliatti_9_593", "54").
destination("Togliatti_10_641", "204[1][1]").
destination("Togliatti_10_648", "204[1][1]").
destination("Vittorio_Veneto_10_489", "204[1][1]").
destination("XXI_Aprile_1_848", "86").
destination("Pepoli_11_1886", "124").
destination("Pepoli_11_1958", "124").
destination("Costa_200_851", "204[1][1]").
destination("Pepoli_11_1989", "124").
destination("Vittorio_Veneto_2_622", "77[1][1]").
destination("Pepoli_12_987", "180").
destination("Costa_50_1360", "[200|60]").
destination("Pepoli_11_1591", "124").
destination("Pepoli_3_1661", "10").
destination("Pepoli_3_1555", "14").
destination("Pepoli_11_1957", "124").
destination("XXI_Aprile_7_699", "209").
destination("XXI_Aprile_7_992", "209").
destination("Pepoli_11_1924", "124").
destination("Pepoli_11_2085", "124").
destination("Pepoli_12_1675", "180").
destination("Costa_200_1195", "204[1][1]").
destination("Vittorio_Veneto_10_536", "204[1][1]").
destination("Pepoli_12_1678", "180").
destination("XXI_Aprile_7_925", "209").
destination("XXI_Aprile_113_933", "124").
destination("XXI_Aprile_102_511", "204[1][1]").
destination("Pepoli_11_1913", "124").
destination("Pepoli_3_1062", "14").
destination("Pepoli_3_1330", "10").
destination("Pepoli_3_1638", "14").
destination("Costa_91_921", "54").
destination("Costa_200_213", "204[1][1]").
destination("Pepoli_1_1106", "86").
destination("XXI_Aprile_102_574", "204[1][1]").
destination("XXI_Aprile_102_622", "204[1][1]").
destination("XXI_Aprile_7_938", "209").
destination("Costa_200_1032", "204[1][1]").
destination("Pepoli_11_2065", "124").
destination("Pepoli_11_734", "124").
destination("Pepoli_11_1631", "124").
destination("Pepoli_11_1656", "124").
destination("Pepoli_11_2076", "124").
destination("Pepoli_11_176", "124").
destination("Pepoli_11_1936", "124").
destination("Audinot_10_135", "204[1][1]").
destination("XXI_Aprile_94_1001", "54").
destination("Pepoli_11_1888", "124").
destination("XXI_Aprile_7_809", "209").
destination("Pepoli_12_1315", "180").
destination("XXI_Aprile_113_824", "124").
destination("Togliatti_10_618", "204[1][1]").
destination("Vittorio_Veneto_10_448", "204[1][1]").
destination("Vittorio_Veneto_1_550", "86").
destination("Pepoli_11_2078", "124").
destination("XXI_Aprile_2_995", "77[1][1]").
destination("Togliatti_10_649", "204[1][1]").
destination("Togliatti_10_356", "204[1][1]").
destination("Costa_200_1007", "204[1][1]").
destination("Pepoli_3_1411", "14").
destination("Pepoli_11_1834", "124").
destination("Togliatti_10_483", "204[1][1]").
destination("Pepoli_11_1836", "124").
destination("Vittorio_Veneto_73_588", "209").
destination("Vittorio_Veneto_1_650", "86").
destination("Pepoli_3_1008", "14").
destination("XXI_Aprile_7_845", "209").
destination("Vittorio_Veneto_2_637", "77[1][1]").
destination("Pepoli_2_962", "77[1][1]").
destination("Audinot_12_161", "180").
destination("Pepoli_11_1824", "124").
destination("Togliatti_80_669", "134").
destination("Vittorio_Veneto_10_668", "204[1][1]").
destination("Vittorio_Veneto_2_658", "77[1][1]").
destination("Vittorio_Veneto_73_667", "209").
destination("Pepoli_3_1357", "10").
destination("Pepoli_3_1156", "14").
destination("Pepoli_3_1362", "10").
destination("Togliatti_10_721", "204[1][1]").
destination("Pepoli_2_1438", "77[1][1]").
destination("Pepoli_3_1050", "14").
destination("XXI_Aprile_113_678", "124").
destination("Audinot_9_167", "54").
destination("Togliatti_5_704", "[200|60]").
destination("Vittorio_Veneto_10_510", "204[1][1]").
destination("XXI_Aprile_7_769", "209").
destination("Vittorio_Veneto_3_568", "14").
destination("XXI_Aprile_7_945", "209").
destination("XXI_Aprile_94_693", "54").
destination("XXI_Aprile_7_977", "209").
destination("XXI_Aprile_92_584", "54").
destination("XXI_Aprile_7_703", "209").
destination("Vittorio_Veneto_2_659", "77[1][1]").
destination("Vittorio_Veneto_2_560", "77[1][1]").
destination("Costa_200_1152", "204[1][1]").
destination("Vittorio_Veneto_10_577", "204[1][1]").
destination("Togliatti_9_416", "54").
destination("Turati_10_30", "204[1][1]").
destination("XXI_Aprile_103_619", "204[1][1]").
destination("Togliatti_10_605", "204[1][1]").
destination("Costa_91_1213", "54").
destination("Togliatti_10_614", "204[1][1]").
destination("XXI_Aprile_7_767", "209").
destination("XXI_Aprile_113_895", "124").
destination("Vittorio_Veneto_10_488", "204[1][1]").
destination("Costa_200_1343", "204[1][1]").
destination("Pepoli_11_1972", "124").
destination("Audinot_5_158", "[200|60]").
destination("XXI_Aprile_113_771", "124").
destination("Costa_200_488", "204[1][1]").
destination("Pepoli_3_1619", "10").
destination("Pepoli_11_2049", "124").
destination("Costa_50_1372", "[200|60]").
destination("Togliatti_10_446", "204[1][1]").
destination("Costa_200_737", "204[1][1]").
destination("Pepoli_3_1038", "14").
destination("XXI_Aprile_7_970", "209").
destination("Pepoli_11_1983", "124").
destination("XXI_Aprile_94_787", "54").
destination("Vittorio_Veneto_1_649", "86").
destination("Vittorio_Veneto_1_662", "86").
destination("Costa_50_1364", "[200|60]").
destination("Vittorio_Veneto_10_444", "204[1][1]").
destination("Vittorio_Veneto_1_616", "86").
destination("Pepoli_11_1868", "124").
destination("Pepoli_12_1550", "180").
destination("Pepoli_11_1960", "124").
destination("Togliatti_10_580", "204[1][1]").
destination("Audinot_3_148", "14").
destination("Pepoli_3_1504", "10").
destination("XXI_Aprile_7_905", "209").
destination("XXI_Aprile_102_837", "204[1][1]").
destination("Togliatti_10_476", "204[1][1]").
destination("Pepoli_3_1380", "14").
destination("Togliatti_9_678", "54").
destination("XXI_Aprile_7_917", "209").
destination("Pepoli_11_1637", "124").
destination("XXI_Aprile_102_795", "204[1][1]").
destination("XXI_Aprile_7_971", "209").
destination("Pepoli_11_1276", "124").
destination("Pepoli_12_942", "180").
destination("Togliatti_10_695", "204[1][1]").
destination("Pepoli_11_1912", "124").
destination("XXI_Aprile_7_798", "209").
destination("Togliatti_9_675", "54").
destination("XXI_Aprile_7_997", "209").
destination("Costa_200_1036", "204[1][1]").
destination("Togliatti_10_662", "204[1][1]").
destination("XXI_Aprile_7_835", "209").
destination("Vittorio_Veneto_1_578", "86").
destination("Pepoli_12_1589", "180").
destination("Togliatti_10_634", "204[1][1]").
destination("Pepoli_11_2011", "124").
destination("Togliatti_10_677", "204[1][1]").
destination("Pepoli_3_1381", "14").
destination("Pepoli_11_2040", "124").
destination("Pepoli_11_1898", "124").
destination("XXI_Aprile_7_728", "209").
destination("XXI_Aprile_8_780", "134").
destination("Pepoli_5_1471", "[200|60]").
destination("XXI_Aprile_1_960", "86").
destination("Togliatti_10_474", "204[1][1]").
destination("Togliatti_10_609", "204[1][1]").
destination("Vittorio_Veneto_2_548", "77[1][1]").
destination("Pepoli_11_1562", "124").
destination("Pepoli_11_1922", "124").
destination("XXI_Aprile_7_717", "209").
destination("Pepoli_11_1679", "124").
destination("Vittorio_Veneto_2_666", "77[1][1]").
destination("XXI_Aprile_7_732", "209").
destination("Vittorio_Veneto_10_427", "204[1][1]").
destination("Pepoli_3_1625", "10").
destination("Togliatti_10_690", "204[1][1]").
destination("Togliatti_10_497", "204[1][1]").
destination("Pepoli_11_1703", "124").
destination("Pepoli_11_2029", "124").
destination("Pepoli_12_1166", "180").
destination("XXI_Aprile_7_947", "209").
destination("Pepoli_3_1518", "10").
destination("XXI_Aprile_103_380", "204[1][1]").
destination("Pepoli_11_1955", "124").
destination("Vittorio_Veneto_10_556", "204[1][1]").
destination("Vittorio_Veneto_10_417", "204[1][1]").
destination("XXI_Aprile_102_869", "204[1][1]").
destination("Togliatti_10_705", "204[1][1]").
destination("Pepoli_3_1622", "10").
destination("Pepoli_11_1977", "124").
destination("XXI_Aprile_102_820", "204[1][1]").
destination("Togliatti_9_724", "54").
destination("Pepoli_11_1884", "124").
destination("Vittorio_Veneto_10_609", "204[1][1]").
destination("XXI_Aprile_7_793", "209").
destination("Pepoli_11_1918", "124").
destination("Vittorio_Veneto_2_617", "77[1][1]").
destination("Pepoli_11_1943", "124").
destination("Pepoli_11_612", "124").
destination("Togliatti_11_612", "124").
destination("XXI_Aprile_7_812", "209").
destination("XXI_Aprile_7_888", "209").
destination("Pepoli_12_1484", "180").
destination("Costa_200_1235", "204[1][1]").
destination("Pepoli_11_1864", "124").
destination("Pepoli_11_2038", "124").
destination("Pepoli_11_2045", "124").
destination("XXI_Aprile_1_885", "86").
destination("Pepoli_3_1517", "10").
destination("Costa_200_1167", "204[1][1]").
destination("XXI_Aprile_1_996", "86").
destination("Vittorio_Veneto_10_611", "204[1][1]").
destination("Togliatti_9_426", "54").
destination("Pepoli_11_1885", "124").
destination("Pepoli_12_948", "180").
destination("XXI_Aprile_1_1008", "86").
destination("Pepoli_11_2082", "124").
destination("Pepoli_12_1200", "180").
destination("Togliatti_11_668", "124").
destination("Costa_11_849", "124").
destination("Pepoli_11_1860", "124").
destination("Pepoli_3_1639", "10").
destination("Pepoli_3_1303", "10").
destination("Pepoli_11_2014", "124").
destination("XXI_Aprile_12_807", "180").
destination("Costa_200_504", "204[1][1]").
destination("Costa_200_1291", "204[1][1]").
destination("Vittorio_Veneto_10_562", "204[1][1]").
destination("XXI_Aprile_7_786", "209").
destination("Costa_200_552", "204[1][1]").
destination("XXI_Aprile_9_527", "54").
destination("Pepoli_11_1965", "124").
destination("Togliatti_11_686", "124").
destination("XXI_Aprile_92_878", "54").
destination("Audinot_3_152", "14").
destination("Pepoli_11_1489", "124").
destination("Costa_200_749", "204[1][1]").
destination("XXI_Aprile_5_1007", "[200|60]").
destination("Pepoli_11_1724", "124").
destination("Togliatti_10_720", "204[1][1]").
destination("Pepoli_11_1744", "124").
destination("XXI_Aprile_7_832", "209").
destination("Pepoli_11_1850", "124").
destination("Pepoli_11_1627", "124").
destination("Pepoli_3_1297", "10").
destination("Costa_200_762", "204[1][1]").
destination("Vittorio_Veneto_10_298", "204[1][1]").
destination("Pepoli_11_1054", "124").
destination("Pepoli_11_1856", "124").
destination("XXI_Aprile_7_858", "209").
destination("XXI_Aprile_7_754", "209").
vehicle("Pepoli_11_2093", 0).
vehicle("Pepoli_12_1689", 0).
vehicle("Pepoli_11_1408", 0).
vehicle("XXI_Aprile_94_630", 0).
vehicle("XXI_Aprile_102_851", 0).
vehicle("Pepoli_11_1894", 0).
vehicle("Pepoli_12_1663", 0).
vehicle("Pepoli_11_1929", 0).
vehicle("Pepoli_12_1252", 0).
vehicle("Vittorio_Veneto_2_601", 0).
vehicle("Pepoli_11_1567", 0).
vehicle("XXI_Aprile_1_999", 0).
vehicle("XXI_Aprile_7_746", 0).
vehicle("Pepoli_11_1788", 0).
vehicle("XXI_Aprile_7_770", 0).
vehicle("Vittorio_Veneto_2_645", 0).
vehicle("Pepoli_12_1506", 0).
vehicle("Vittorio_Veneto_1_584", 0).
vehicle("Pepoli_3_1596", 0).
vehicle("XXI_Aprile_9_857", 0).
vehicle("Togliatti_10_596", 0).
vehicle("Togliatti_10_673", 0).
vehicle("Pepoli_11_1970", 0).
vehicle("Pepoli_2_1127", 0).
vehicle("XXI_Aprile_7_819", 0).
vehicle("Pepoli_11_1825", 0).
vehicle("Vittorio_Veneto_10_374", 0).
vehicle("XXI_Aprile_113_642", 0).
vehicle("Audinot_1_160", 0).
vehicle("Pepoli_3_1624", 0).
vehicle("Vittorio_Veneto_10_653", 0).
vehicle("Vittorio_Veneto_2_605", 0).
vehicle("Togliatti_10_730", 0).
vehicle("Vittorio_Veneto_1_660", 0).
vehicle("Vittorio_Veneto_2_552", 0).
vehicle("XXI_Aprile_104_773", 0).
vehicle("Togliatti_11_658", 0).
vehicle("Togliatti_10_585", 0).
vehicle("Vittorio_Veneto_82_504", 0).
vehicle("Costa_50_1365", 0).
vehicle("Pepoli_11_1687", 0).
vehicle("XXI_Aprile_102_627", 0).
vehicle("Pepoli_11_1806", 0).
vehicle("Togliatti_10_628", 0).
vehicle("XXI_Aprile_12_954", 0).
vehicle("XXI_Aprile_7_760", 0).
vehicle("XXI_Aprile_7_928", 0).
vehicle("Costa_200_1218", 0).
vehicle("XXI_Aprile_1_983", 0).
vehicle("Costa_11_1214", 0).
vehicle("Pepoli_3_1472", 0).
vehicle("Pepoli_3_1035", 0).
vehicle("Vittorio_Veneto_2_627", 0).
vehicle("Vittorio_Veneto_1_641", 0).
vehicle("Vittorio_Veneto_2_575", 0).
vehicle("Togliatti_10_616", 0).
vehicle("Vittorio_Veneto_10_481", 0).
vehicle("Togliatti_10_635", 0).
vehicle("XXI_Aprile_7_791", 0).
vehicle("Togliatti_10_710", 0).
vehicle("Vittorio_Veneto_10_503", 0).
vehicle("Pepoli_11_1947", 0).
vehicle("Pepoli_2_1377", 0).
vehicle("Costa_200_1327", 0).
vehicle("Pepoli_11_1954", 0).
vehicle("Togliatti_10_717", 0).
vehicle("Vittorio_Veneto_1_586", 0).
vehicle("Vittorio_Veneto_2_593", 0).
vehicle("Togliatti_10_663", 0).
vehicle("Pepoli_5_1480", 0).
vehicle("Togliatti_9_575", 0).
vehicle("Pepoli_11_2058", 0).
vehicle("Togliatti_10_688", 0).
vehicle("XXI_Aprile_93_822", 0).
vehicle("Togliatti_71_722", 0).
vehicle("XXI_Aprile_94_964", 0).
vehicle("Pepoli_11_1867", 0).
vehicle("Togliatti_9_650", 0).
vehicle("Costa_70_1368", 0).
vehicle("Costa_200_505", 0).
vehicle("Pepoli_11_2054", 0).
vehicle("Pepoli_11_1643", 0).
vehicle("Togliatti_10_711", 0).
vehicle("Pepoli_12_1427", 0).
vehicle("XXI_Aprile_7_1010", 0).
vehicle("Vittorio_Veneto_1_620", 0).
vehicle("Pepoli_11_1964", 0).
vehicle("Pepoli_11_2052", 0).
vehicle("Pepoli_12_939", 0).
vehicle("Pepoli_3_1402", 0).
vehicle("Pepoli_11_1871", 0).
vehicle("Vittorio_Veneto_1_591", 0).
vehicle("Pepoli_3_1122", 0).
vehicle("XXI_Aprile_113_823", 0).
vehicle("Pepoli_11_1011", 0).
vehicle("Pepoli_2_1571", 0).
vehicle("Pepoli_3_978", 0).
vehicle("XXI_Aprile_7_926", 0).
vehicle("Pepoli_11_1760", 0).
vehicle("Vittorio_Veneto_82_628", 0).
vehicle("Costa_91_1119", 0).
vehicle("Costa_200_240", 0).
vehicle("XXI_Aprile_7_758", 0).
vehicle("Pepoli_3_1140", 0).
vehicle("Vittorio_Veneto_1_606", 0).
vehicle("Vittorio_Veneto_1_551", 0).
vehicle("Pepoli_11_1739", 0).
vehicle("Pepoli_3_1443", 0).
vehicle("Vittorio_Veneto_2_587", 0).
vehicle("Costa_11_827", 0).
vehicle("Costa_200_1230", 0).
vehicle("Pepoli_11_1659", 0).
vehicle("Vittorio_Veneto_1_598", 0).
vehicle("Costa_200_1362", 0).
vehicle("Vittorio_Veneto_1_621", 0).
vehicle("Togliatti_9_703", 0).
vehicle("Pepoli_11_1566", 0).
vehicle("XXI_Aprile_94_898", 0).
vehicle("Vittorio_Veneto_2_573", 0).
vehicle("Vittorio_Veneto_10_672", 0).
vehicle("Togliatti_10_731", 0).
vehicle("Togliatti_11_692", 0).
vehicle("Pepoli_12_1442", 0).
vehicle("Costa_200_1262", 0).
vehicle("Pepoli_2_1390", 0).
vehicle("XXI_Aprile_93_359", 0).
vehicle("Pepoli_11_2042", 0).
vehicle("Pepoli_2_972", 0).
vehicle("Pepoli_3_1148", 0).
vehicle("Pepoli_3_1177", 0).
vehicle("Vittorio_Veneto_10_656", 0).
vehicle("Togliatti_9_466", 0).
vehicle("Pepoli_1_1359", 0).
vehicle("Pepoli_11_1938", 0).
vehicle("XXI_Aprile_93_838", 0).
vehicle("XXI_Aprile_5_881", 0).
vehicle("XXI_Aprile_93_889", 0).
vehicle("Costa_11_597", 0).
vehicle("XXI_Aprile_113_518", 0).
vehicle("Pepoli_11_1455", 0).
vehicle("Pepoli_2_1440", 0).
vehicle("Costa_200_220", 0).
vehicle("Togliatti_10_670", 0).
vehicle("Togliatti_5_630", 0).
vehicle("Costa_200_1205", 0).
vehicle("XXI_Aprile_7_830", 0).
vehicle("XXI_Aprile_92_949", 0).
vehicle("Pepoli_11_1499", 0).
vehicle("XXI_Aprile_7_806", 0).
vehicle("Togliatti_9_599", 0).
vehicle("XXI_Aprile_7_828", 0).
vehicle("Pepoli_11_1812", 0).
vehicle("Vittorio_Veneto_1_579", 0).
vehicle("Pepoli_11_2067", 0).
vehicle("Vittorio_Veneto_10_398", 0).
vehicle("Vittorio_Veneto_1_600", 0).
vehicle("Pepoli_12_1672", 0).
vehicle("Togliatti_9_646", 0).
vehicle("XXI_Aprile_94_811", 0).
vehicle("Pepoli_11_2084", 0).
vehicle("XXI_Aprile_103_608", 0).
vehicle("Togliatti_10_657", 0).
vehicle("Vittorio_Veneto_1_566", 0).
vehicle("XXI_Aprile_7_736", 0).
vehicle("XXI_Aprile_7_875", 0).
vehicle("XXI_Aprile_7_978", 0).
vehicle("Pepoli_2_1090", 0).
vehicle("XXI_Aprile_113_762", 0).
vehicle("Pepoli_12_1290", 0).
vehicle("Vittorio_Veneto_10_646", 0).
vehicle("Pepoli_12_915", 0).
vehicle("XXI_Aprile_113_987", 0).
vehicle("XXI_Aprile_102_973", 0).
vehicle("XXI_Aprile_7_976", 0).
vehicle("XXI_Aprile_9_150", 0).
vehicle("XXI_Aprile_7_908", 0).
vehicle("Pepoli_11_2022", 0).
vehicle("Togliatti_9_567", 0).
vehicle("XXI_Aprile_113_959", 0).
vehicle("Costa_200_1118", 0).
vehicle("Togliatti_80_674", 0).
vehicle("XXI_Aprile_7_904", 0).
vehicle("Audinot_3_165", 0).
vehicle("Pepoli_12_1201", 0).
vehicle("XXI_Aprile_1_940", 0).
vehicle("Pepoli_11_1365", 0).
vehicle("XXI_Aprile_1_1006", 0).
vehicle("Pepoli_11_1667", 0).
vehicle("Vittorio_Veneto_10_589", 0).
vehicle("Audinot_12_162", 0).
vehicle("Vittorio_Veneto_2_557", 0).
vehicle("Pepoli_3_1001", 0).
vehicle("XXI_Aprile_94_899", 0).
vehicle("Pepoli_3_1541", 0).
vehicle("Costa_200_1224", 0).
vehicle("Costa_200_501", 0).
vehicle("Pepoli_11_2016", 0).
vehicle("Vittorio_Veneto_10_431", 0).
vehicle("Costa_200_1281", 0).
vehicle("Pepoli_11_1736", 0).
vehicle("Pepoli_11_2059", 0).
vehicle("Costa_200_303", 0).
vehicle("Pepoli_11_1997", 0).
vehicle("Togliatti_71_723", 0).
vehicle("Costa_200_555", 0).
vehicle("Pepoli_3_1088", 0).
vehicle("XXI_Aprile_93_653", 0).
vehicle("Pepoli_11_2028", 0).
vehicle("Pepoli_3_1082", 0).
vehicle("XXI_Aprile_7_698", 0).
vehicle("XXI_Aprile_7_932", 0).
vehicle("Pepoli_11_1945", 0).
vehicle("XXI_Aprile_94_339", 0).
vehicle("XXI_Aprile_94_514", 0).
vehicle("Vittorio_Veneto_10_387", 0).
vehicle("Pepoli_3_1242", 0).
vehicle("Audinot_10_139", 0).
vehicle("XXI_Aprile_7_1002", 0).
vehicle("Pepoli_11_1642", 0).
vehicle("Pepoli_3_1105", 0).
vehicle("Pepoli_12_899", 0).
vehicle("XXI_Aprile_7_722", 0).
vehicle("Audinot_7_163", 0).
vehicle("Audinot_10_159", 0).
vehicle("XXI_Aprile_1_943", 0).
vehicle("Pepoli_11_2053", 0).
vehicle("Pepoli_3_1060", 0).
vehicle("XXI_Aprile_94_985", 0).
vehicle("Costa_200_1216", 0).
vehicle("Pepoli_11_2095", 0).
vehicle("Pepoli_11_1547", 0).
vehicle("Audinot_7_164", 0).
vehicle("Pepoli_3_1560", 0).
vehicle("XXI_Aprile_102_906", 0).
vehicle("XXI_Aprile_9_761", 0).
vehicle("Pepoli_11_1808", 0).
vehicle("Pepoli_1_1524", 0).
vehicle("XXI_Aprile_7_956", 0).
vehicle("Togliatti_9_665", 0).
vehicle("XXI_Aprile_7_962", 0).
vehicle("Pepoli_11_1865", 0).
vehicle("Vittorio_Veneto_1_570", 0).
vehicle("XXI_Aprile_94_756", 0).
vehicle("XXI_Aprile_7_901", 0).
vehicle("Togliatti_10_615", 0).
vehicle("Vittorio_Veneto_2_603", 0).
vehicle("Pepoli_11_1982", 0).
vehicle("Vittorio_Veneto_2_648", 0).
vehicle("Costa_200_1100", 0).
vehicle("Pepoli_12_1010", 0).
vehicle("Pepoli_3_1588", 0).
vehicle("Togliatti_9_621", 0).
vehicle("XXI_Aprile_94_799", 0).
vehicle("XXI_Aprile_104_961", 0).
vehicle("XXI_Aprile_9_628", 0).
vehicle("Vittorio_Veneto_10_463", 0).
vehicle("XXI_Aprile_113_788", 0).
vehicle("Pepoli_2_1194", 0).
vehicle("Pepoli_11_1892", 0).
vehicle("Costa_200_1240", 0).
vehicle("XXI_Aprile_113_706", 0).
vehicle("Vittorio_Veneto_2_594", 0).
vehicle("XXI_Aprile_7_963", 0).
vehicle("XXI_Aprile_2_990", 0).
vehicle("Pepoli_11_1967", 0).
vehicle("XXI_Aprile_93_950", 0).
vehicle("XXI_Aprile_93_834", 0).
vehicle("Togliatti_11_513", 0).
vehicle("XXI_Aprile_12_921", 0).
vehicle("Pepoli_11_1873", 0).
vehicle("XXI_Aprile_1_825", 0).
vehicle("Pepoli_11_1848", 0).
vehicle("XXI_Aprile_7_998", 0).
vehicle("Pepoli_12_911", 0).
vehicle("XXI_Aprile_114_275", 0).
vehicle("Pepoli_1_1676", 0).
vehicle("Pepoli_11_1712", 0).
vehicle("XXI_Aprile_7_952", 0).
vehicle("Pepoli_11_1853", 0).
vehicle("Costa_200_1257", 0).
vehicle("Pepoli_12_1491", 0).
vehicle("Pepoli_3_981", 0).
vehicle("Togliatti_10_664", 0).
vehicle("XXI_Aprile_9_981", 0).
vehicle("Costa_50_1369", 0).
vehicle("Togliatti_9_377", 0).
vehicle("Audinot_12_149", 0).
vehicle("Vittorio_Veneto_1_664", 0).
vehicle("XXI_Aprile_102_588", 0).
vehicle("Togliatti_10_606", 0).
vehicle("XXI_Aprile_94_364", 0).
vehicle("Togliatti_10_713", 0).
vehicle("Togliatti_10_685", 0).
vehicle("Togliatti_10_592", 0).
vehicle("Pepoli_3_1077", 0).
vehicle("Pepoli_11_1840", 0).
vehicle("Vittorio_Veneto_2_623", 0).
vehicle("XXI_Aprile_7_831", 0).
vehicle("Pepoli_3_1492", 0).
vehicle("Togliatti_10_734", 0).
vehicle("Vittorio_Veneto_10_651", 0).
vehicle("Pepoli_11_2062", 0).
vehicle("Pepoli_2_977", 0).
vehicle("Pepoli_11_1869", 0).
vehicle("Togliatti_10_652", 0).
vehicle("Pepoli_12_1287", 0).
vehicle("Pepoli_11_1735", 0).
vehicle("Costa_91_1150", 0).
vehicle("Pepoli_11_1990", 0).
vehicle("Togliatti_9_732", 0).
vehicle("Pepoli_12_953", 0).
vehicle("Togliatti_10_626", 0).
vehicle("XXI_Aprile_102_726", 0).
vehicle("Pepoli_2_1607", 0).
vehicle("Pepoli_11_2017", 0).
vehicle("Audinot_12_156", 0).
vehicle("Costa_200_530", 0).
vehicle("Costa_91_177", 0).
vehicle("XXI_Aprile_7_702", 0).
vehicle("Costa_700_1366", 0).
vehicle("Costa_70_1373", 0).
vehicle("Pepoli_12_1120", 0).
vehicle("Togliatti_11_506", 0).
vehicle("Vittorio_Veneto_2_654", 0).
vehicle("Costa_200_546", 0).
vehicle("XXI_Aprile_114_533", 0).
vehicle("XXI_Aprile_93_896", 0).
vehicle("XXI_Aprile_103_801", 0).
vehicle("Pepoli_3_1163", 0).
vehicle("Vittorio_Veneto_73_559", 0).
vehicle("Costa_50_1356", 0).
vehicle("Pepoli_3_1469", 0).
vehicle("XXI_Aprile_7_740", 0).
vehicle("Pepoli_8_143", 0).
vehicle("XXI_Aprile_5_1005", 0).
vehicle("Pepoli_11_2047", 0).
vehicle("XXI_Aprile_7_989", 0).
vehicle("Pepoli_3_1598", 0).
vehicle("XXI_Aprile_102_566", 0).
vehicle("XXI_Aprile_7_755", 0).
vehicle("XXI_Aprile_5_993", 0).
vehicle("XXI_Aprile_7_1011", 0).
vehicle("XXI_Aprile_7_764", 0).
vehicle("Costa_200_917", 0).
vehicle("XXI_Aprile_94_661", 0).
vehicle("XXI_Aprile_93_562", 0).
vehicle("Costa_50_1358", 0).
vehicle("Pepoli_11_2056", 0).
vehicle("XXI_Aprile_93_614", 0).
vehicle("Pepoli_11_2009", 0).
vehicle("XXI_Aprile_1_984", 0).
vehicle("Pepoli_12_1314", 0).
vehicle("Pepoli_12_1570", 0).
vehicle("Pepoli_11_1764", 0).
vehicle("XXI_Aprile_1_1004", 0).
vehicle("Pepoli_11_1870", 0).
vehicle("Pepoli_12_1608", 0).
vehicle("XXI_Aprile_7_842", 0).
vehicle("XXI_Aprile_8_737", 0).
vehicle("Vittorio_Veneto_1_638", 0).
vehicle("Vittorio_Veneto_82_595", 0).
vehicle("XXI_Aprile_7_1009", 0).
vehicle("Togliatti_10_671", 0).
vehicle("XXI_Aprile_113_565", 0).
vehicle("XXI_Aprile_94_863", 0).
vehicle("Pepoli_3_1092", 0).
vehicle("XXI_Aprile_93_503", 0).
vehicle("Pepoli_11_1767", 0).
vehicle("XXI_Aprile_7_946", 0).
vehicle("Pepoli_5_1543", 0).
vehicle("Pepoli_11_1822", 0).
vehicle("Togliatti_11_681", 0).
vehicle("Pepoli_11_1973", 0).
vehicle("XXI_Aprile_7_982", 0).
vehicle("Costa_11_841", 0).
vehicle("XXI_Aprile_7_711", 0).
vehicle("Costa_91_166", 0).
vehicle("Pepoli_3_1261", 0).
vehicle("XXI_Aprile_7_902", 0).
vehicle("Vittorio_Veneto_73_583", 0).
vehicle("XXI_Aprile_7_919", 0).
vehicle("Pepoli_1_1519", 0).
vehicle("XXI_Aprile_93_189", 0).
vehicle("Togliatti_11_697", 0).
vehicle("XXI_Aprile_102_713", 0).
vehicle("Pepoli_11_1857", 0).
vehicle("Togliatti_10_584", 0).
vehicle("Pepoli_2_1217", 0).
vehicle("XXI_Aprile_12_980", 0).
vehicle("Vittorio_Veneto_10_610", 0).
vehicle("XXI_Aprile_7_792", 0).
vehicle("XXI_Aprile_9_497", 0).
vehicle("Togliatti_10_598", 0).
vehicle("XXI_Aprile_12_986", 0).
vehicle("Pepoli_3_1392", 0).
vehicle("Pepoli_3_976", 0).
vehicle("Vittorio_Veneto_2_592", 0).
vehicle("XXI_Aprile_7_957", 0).
vehicle("Pepoli_3_1602", 0).
vehicle("Pepoli_11_1651", 0).
vehicle("Vittorio_Veneto_10_669", 0).
vehicle("Vittorio_Veneto_10_517", 0).
vehicle("Vittorio_Veneto_73_670", 0).
vehicle("Vittorio_Veneto_10_535", 0).
vehicle("XXI_Aprile_113_829", 0).
vehicle("Vittorio_Veneto_2_582", 0).
vehicle("Pepoli_11_1931", 0).
vehicle("Vittorio_Veneto_10_291", 0).
vehicle("XXI_Aprile_7_733", 0).
vehicle("Costa_91_273", 0).
vehicle("Pepoli_11_1839", 0).
vehicle("XXI_Aprile_7_915", 0).
vehicle("XXI_Aprile_93_991", 0).
vehicle("Pepoli_11_1514", 0).
vehicle("XXI_Aprile_8_744", 0).
vehicle("Pepoli_12_1482", 0).
vehicle("Pepoli_11_2024", 0).
vehicle("Vittorio_Veneto_1_597", 0).
vehicle("Vittorio_Veneto_73_618", 0).
vehicle("Pepoli_3_1176", 0).
vehicle("Togliatti_10_581", 0).
vehicle("XXI_Aprile_1_942", 0).
vehicle("XXI_Aprile_7_951", 0).
vehicle("Togliatti_9_728", 0).
vehicle("XXI_Aprile_94_880", 0).
vehicle("Vittorio_Veneto_10_640", 0).
vehicle("XXI_Aprile_8_864", 0).
vehicle("Pepoli_11_2098", 0).
vehicle("Costa_200_1357", 0).
vehicle("Togliatti_9_620", 0).
vehicle("Pepoli_11_1827", 0).
vehicle("Vittorio_Veneto_10_413", 0).
vehicle("Vittorio_Veneto_1_647", 0).
vehicle("Costa_200_256", 0).
vehicle("XXI_Aprile_7_742", 0).
vehicle("Costa_200_1305", 0).
vehicle("Togliatti_10_597", 0).
vehicle("Pepoli_12_1531", 0).
vehicle("XXI_Aprile_7_723", 0).
vehicle("XXI_Aprile_7_913", 0).
vehicle("Togliatti_9_482", 0).
vehicle("XXI_Aprile_12_988", 0).
vehicle("XXI_Aprile_102_625", 0).
vehicle("XXI_Aprile_103_370", 0).
vehicle("Togliatti_10_682", 0).
vehicle("Pepoli_11_1979", 0).
vehicle("Vittorio_Veneto_1_642", 0).
vehicle("XXI_Aprile_102_197", 0).
vehicle("XXI_Aprile_7_979", 0).
vehicle("Pepoli_3_1132", 0).
vehicle("Togliatti_10_378", 0).
vehicle("Pepoli_11_2050", 0).
vehicle("Vittorio_Veneto_1_655", 0).
vehicle("Costa_200_211", 0).
vehicle("Costa_91_1261", 0).
vehicle("XXI_Aprile_93_287", 0).
vehicle("Vittorio_Veneto_10_499", 0).
vehicle("Togliatti_10_601", 0).
vehicle("Pepoli_11_1897", 0).
vehicle("Costa_50_1370", 0).
vehicle("Pepoli_11_2079", 0).
vehicle("Pepoli_12_961", 0).
vehicle("Pepoli_3_1265", 0).
vehicle("Costa_200_411", 0).
vehicle("Vittorio_Veneto_10_404", 0).
vehicle("Vittorio_Veneto_2_585", 0).
vehicle("Togliatti_10_577", 0).
vehicle("Togliatti_10_595", 0).
vehicle("XXI_Aprile_94_841", 0).
vehicle("Pepoli_11_1313", 0).
vehicle("Pepoli_11_1616", 0).
vehicle("Pepoli_11_1829", 0).
vehicle("Pepoli_11_1861", 0).
vehicle("Pepoli_12_1649", 0).
vehicle("Togliatti_9_642", 0).
vehicle("XXI_Aprile_7_920", 0).
vehicle("Pepoli_3_1580", 0).
vehicle("XXI_Aprile_7_972", 0).
vehicle("XXI_Aprile_94_498", 0).
vehicle("Togliatti_10_727", 0).
vehicle("Pepoli_3_1601", 0).
vehicle("Vittorio_Veneto_2_644", 0).
vehicle("Togliatti_10_589", 0).
vehicle("XXI_Aprile_1_840", 0).
vehicle("Pepoli_3_1185", 0).
vehicle("Costa_200_1287", 0).
vehicle("Pepoli_3_1043", 0).
vehicle("XXI_Aprile_9_532", 0).
vehicle("Vittorio_Veneto_1_604", 0).
vehicle("Pepoli_11_1701", 0).
vehicle("Togliatti_10_486", 0).
vehicle("XXI_Aprile_94_774", 0).
vehicle("Pepoli_3_1030", 0).
vehicle("Pepoli_3_1208", 0).
vehicle("Pepoli_11_1883", 0).
vehicle("Togliatti_10_602", 0).
vehicle("Vittorio_Veneto_10_494", 0).
vehicle("XXI_Aprile_7_794", 0).
vehicle("XXI_Aprile_7_749", 0).
vehicle("Vittorio_Veneto_2_563", 0).
vehicle("Pepoli_12_1409", 0).
vehicle("Pepoli_3_1329", 0).
vehicle("Vittorio_Veneto_32_632", 0).
vehicle("XXI_Aprile_12_847", 0).
vehicle("Pepoli_12_901", 0).
vehicle("Pepoli_3_1089", 0).
vehicle("Pepoli_3_1494", 0).
vehicle("Pepoli_12_1410", 0).
vehicle("Pepoli_3_1074", 0).
vehicle("Togliatti_11_516", 0).
vehicle("Vittorio_Veneto_1_633", 0).
vehicle("Togliatti_10_578", 0).
vehicle("Pepoli_11_138", 0).
vehicle("Togliatti_10_467", 0).
vehicle("Togliatti_11_691", 0).
vehicle("Togliatti_9_593", 0).
vehicle("Togliatti_10_641", 0).
vehicle("Togliatti_10_648", 0).
vehicle("Vittorio_Veneto_10_489", 0).
vehicle("XXI_Aprile_1_848", 0).
vehicle("Pepoli_11_1886", 0).
vehicle("Pepoli_11_1958", 0).
vehicle("Costa_200_851", 0).
vehicle("Pepoli_11_1989", 0).
vehicle("Vittorio_Veneto_2_622", 0).
vehicle("Pepoli_12_987", 0).
vehicle("Costa_50_1360", 0).
vehicle("Pepoli_11_1591", 0).
vehicle("Pepoli_3_1661", 0).
vehicle("Pepoli_3_1555", 0).
vehicle("Pepoli_11_1957", 0).
vehicle("XXI_Aprile_7_699", 0).
vehicle("XXI_Aprile_7_992", 0).
vehicle("Pepoli_11_1924", 0).
vehicle("Pepoli_11_2085", 0).
vehicle("Pepoli_12_1675", 0).
vehicle("Costa_200_1195", 0).
vehicle("Vittorio_Veneto_10_536", 0).
vehicle("Pepoli_12_1678", 0).
vehicle("XXI_Aprile_113_933", 0).
vehicle("XXI_Aprile_7_925", 0).
vehicle("XXI_Aprile_102_511", 0).
vehicle("Pepoli_11_1913", 0).
vehicle("Pepoli_3_1062", 0).
vehicle("Pepoli_3_1330", 0).
vehicle("Pepoli_3_1638", 0).
vehicle("Costa_91_921", 0).
vehicle("Costa_200_213", 0).
vehicle("Pepoli_1_1106", 0).
vehicle("XXI_Aprile_102_574", 0).
vehicle("XXI_Aprile_102_622", 0).
vehicle("XXI_Aprile_7_938", 0).
vehicle("Costa_200_1032", 0).
vehicle("Pepoli_11_2065", 0).
vehicle("Pepoli_11_734", 0).
vehicle("Pepoli_11_1631", 0).
vehicle("Pepoli_11_1656", 0).
vehicle("Pepoli_11_2076", 0).
vehicle("Pepoli_11_176", 0).
vehicle("Pepoli_11_1936", 0).
vehicle("Audinot_10_135", 0).
vehicle("XXI_Aprile_94_1001", 0).
vehicle("Pepoli_11_1888", 0).
vehicle("XXI_Aprile_7_809", 0).
vehicle("Pepoli_12_1315", 0).
vehicle("XXI_Aprile_113_824", 0).
vehicle("Togliatti_10_618", 0).
vehicle("Vittorio_Veneto_10_448", 0).
vehicle("Vittorio_Veneto_1_550", 0).
vehicle("Pepoli_11_2078", 0).
vehicle("XXI_Aprile_2_995", 0).
vehicle("Togliatti_10_649", 0).
vehicle("Togliatti_10_356", 0).
vehicle("Costa_200_1007", 0).
vehicle("Pepoli_3_1411", 0).
vehicle("Pepoli_11_1834", 0).
vehicle("Togliatti_10_483", 0).
vehicle("Pepoli_11_1836", 0).
vehicle("Vittorio_Veneto_73_588", 0).
vehicle("Vittorio_Veneto_1_650", 0).
vehicle("Pepoli_3_1008", 0).
vehicle("XXI_Aprile_7_845", 0).
vehicle("Vittorio_Veneto_2_637", 0).
vehicle("Pepoli_2_962", 0).
vehicle("Audinot_12_161", 0).
vehicle("Pepoli_11_1824", 0).
vehicle("Togliatti_80_669", 0).
vehicle("Vittorio_Veneto_10_668", 0).
vehicle("Vittorio_Veneto_2_658", 0).
vehicle("Vittorio_Veneto_73_667", 0).
vehicle("Pepoli_3_1357", 0).
vehicle("Pepoli_3_1156", 0).
vehicle("Pepoli_3_1362", 0).
vehicle("Togliatti_10_721", 0).
vehicle("Pepoli_2_1438", 0).
vehicle("Pepoli_3_1050", 0).
vehicle("XXI_Aprile_113_678", 0).
vehicle("Audinot_9_167", 0).
vehicle("Togliatti_5_704", 0).
vehicle("Vittorio_Veneto_10_510", 0).
vehicle("XXI_Aprile_7_769", 0).
vehicle("Vittorio_Veneto_3_568", 0).
vehicle("XXI_Aprile_7_945", 0).
vehicle("XXI_Aprile_94_693", 0).
vehicle("XXI_Aprile_7_977", 0).
vehicle("XXI_Aprile_92_584", 0).
vehicle("XXI_Aprile_7_703", 0).
vehicle("Vittorio_Veneto_2_659", 0).
vehicle("Vittorio_Veneto_2_560", 0).
vehicle("Costa_200_1152", 0).
vehicle("Vittorio_Veneto_10_577", 0).
vehicle("Togliatti_9_416", 0).
vehicle("Turati_10_30", 0).
vehicle("XXI_Aprile_103_619", 0).
vehicle("Costa_91_1213", 0).
vehicle("Togliatti_10_605", 0).
vehicle("Togliatti_10_614", 0).
vehicle("XXI_Aprile_113_895", 0).
vehicle("XXI_Aprile_7_767", 0).
vehicle("Vittorio_Veneto_10_488", 0).
vehicle("Costa_200_1343", 0).
vehicle("Pepoli_11_1972", 0).
vehicle("Audinot_5_158", 0).
vehicle("XXI_Aprile_113_771", 0).
vehicle("Costa_200_488", 0).
vehicle("Pepoli_3_1619", 0).
vehicle("Pepoli_11_2049", 0).
vehicle("Costa_50_1372", 0).
vehicle("Togliatti_10_446", 0).
vehicle("Costa_200_737", 0).
vehicle("Pepoli_3_1038", 0).
vehicle("XXI_Aprile_7_970", 0).
vehicle("Pepoli_11_1983", 0).
vehicle("XXI_Aprile_94_787", 0).
vehicle("Vittorio_Veneto_1_649", 0).
vehicle("Vittorio_Veneto_1_662", 0).
vehicle("Costa_50_1364", 0).
vehicle("Vittorio_Veneto_10_444", 0).
vehicle("Vittorio_Veneto_1_616", 0).
vehicle("Pepoli_11_1868", 0).
vehicle("Pepoli_12_1550", 0).
vehicle("Pepoli_11_1960", 0).
vehicle("Togliatti_10_580", 0).
vehicle("Audinot_3_148", 0).
vehicle("Pepoli_3_1504", 0).
vehicle("XXI_Aprile_7_905", 0).
vehicle("XXI_Aprile_102_837", 0).
vehicle("Togliatti_10_476", 0).
vehicle("Pepoli_3_1380", 0).
vehicle("Togliatti_9_678", 0).
vehicle("XXI_Aprile_7_917", 0).
vehicle("Pepoli_11_1637", 0).
vehicle("XXI_Aprile_102_795", 0).
vehicle("XXI_Aprile_7_971", 0).
vehicle("Pepoli_11_1276", 0).
vehicle("Pepoli_12_942", 0).
vehicle("Togliatti_10_695", 0).
vehicle("Pepoli_11_1912", 0).
vehicle("XXI_Aprile_7_798", 0).
vehicle("Togliatti_9_675", 0).
vehicle("XXI_Aprile_7_997", 0).
vehicle("Costa_200_1036", 0).
vehicle("Togliatti_10_662", 0).
vehicle("XXI_Aprile_7_835", 0).
vehicle("Vittorio_Veneto_1_578", 0).
vehicle("Pepoli_12_1589", 0).
vehicle("Togliatti_10_634", 0).
vehicle("Pepoli_11_2011", 0).
vehicle("Togliatti_10_677", 0).
vehicle("Pepoli_3_1381", 0).
vehicle("Pepoli_11_2040", 0).
vehicle("Pepoli_11_1898", 0).
vehicle("XXI_Aprile_7_728", 0).
vehicle("XXI_Aprile_8_780", 0).
vehicle("Pepoli_5_1471", 0).
vehicle("XXI_Aprile_1_960", 0).
vehicle("Togliatti_10_474", 0).
vehicle("Togliatti_10_609", 0).
vehicle("Vittorio_Veneto_2_548", 0).
vehicle("Pepoli_11_1562", 0).
vehicle("Pepoli_11_1922", 0).
vehicle("XXI_Aprile_7_717", 0).
vehicle("Pepoli_11_1679", 0).
vehicle("Vittorio_Veneto_2_666", 0).
vehicle("XXI_Aprile_7_732", 0).
vehicle("Vittorio_Veneto_10_427", 0).
vehicle("Pepoli_3_1625", 0).
vehicle("Togliatti_10_690", 0).
vehicle("Togliatti_10_497", 0).
vehicle("Pepoli_11_1703", 0).
vehicle("Pepoli_11_2029", 0).
vehicle("Pepoli_12_1166", 0).
vehicle("XXI_Aprile_7_947", 0).
vehicle("Pepoli_3_1518", 0).
vehicle("XXI_Aprile_103_380", 0).
vehicle("Pepoli_11_1955", 0).
vehicle("Vittorio_Veneto_10_556", 0).
vehicle("Vittorio_Veneto_10_417", 0).
vehicle("XXI_Aprile_102_869", 0).
vehicle("Togliatti_10_705", 0).
vehicle("Pepoli_3_1622", 0).
vehicle("Pepoli_11_1977", 0).
vehicle("Togliatti_9_724", 0).
vehicle("Pepoli_11_1884", 0).
vehicle("XXI_Aprile_102_820", 0).
vehicle("Vittorio_Veneto_10_609", 0).
vehicle("XXI_Aprile_7_793", 0).
vehicle("Pepoli_11_1918", 0).
vehicle("Vittorio_Veneto_2_617", 0).
vehicle("Pepoli_11_1943", 0).
vehicle("Pepoli_11_612", 0).
vehicle("Togliatti_11_612", 0).
vehicle("XXI_Aprile_7_812", 0).
vehicle("XXI_Aprile_7_888", 0).
vehicle("Pepoli_12_1484", 0).
vehicle("Costa_200_1235", 0).
vehicle("Pepoli_11_1864", 0).
vehicle("Pepoli_11_2038", 0).
vehicle("Pepoli_11_2045", 0).
vehicle("XXI_Aprile_1_885", 0).
vehicle("Pepoli_3_1517", 0).
vehicle("Costa_200_1167", 0).
vehicle("XXI_Aprile_1_996", 0).
vehicle("Vittorio_Veneto_10_611", 0).
vehicle("Togliatti_9_426", 0).
vehicle("Pepoli_11_1885", 0).
vehicle("Pepoli_12_948", 0).
vehicle("XXI_Aprile_1_1008", 0).
vehicle("Pepoli_11_2082", 0).
vehicle("Pepoli_12_1200", 0).
vehicle("Togliatti_11_668", 0).
vehicle("Costa_11_849", 0).
vehicle("Pepoli_11_1860", 0).
vehicle("Pepoli_3_1639", 0).
vehicle("Pepoli_3_1303", 0).
vehicle("Pepoli_11_2014", 0).
vehicle("XXI_Aprile_12_807", 0).
vehicle("Costa_200_504", 0).
vehicle("Costa_200_1291", 0).
vehicle("Vittorio_Veneto_10_562", 0).
vehicle("XXI_Aprile_7_786", 0).
vehicle("Costa_200_552", 0).
vehicle("XXI_Aprile_9_527", 0).
vehicle("Pepoli_11_1965", 0).
vehicle("Togliatti_11_686", 0).
vehicle("XXI_Aprile_92_878", 0).
vehicle("Audinot_3_152", 0).
vehicle("Pepoli_11_1489", 0).
vehicle("Costa_200_749", 0).
vehicle("XXI_Aprile_5_1007", 0).
vehicle("Pepoli_11_1724", 0).
vehicle("Togliatti_10_720", 0).
vehicle("Pepoli_11_1744", 0).
vehicle("XXI_Aprile_7_832", 0).
vehicle("Pepoli_11_1850", 0).
vehicle("Pepoli_11_1627", 0).
vehicle("Pepoli_3_1297", 0).
vehicle("Costa_200_762", 0).
vehicle("Vittorio_Veneto_10_298", 0).
vehicle("Pepoli_11_1054", 0).
vehicle("Pepoli_11_1856", 0).
vehicle("XXI_Aprile_7_858", 0).
vehicle("XXI_Aprile_7_754", 0).
origin("Pepoli_2_1697", "[210|43[0]]").
vehicle("Pepoli_2_1697", 1).
possibleRouteOfVehicle("Pepoli_2_1697", "R1").
possibleRouteOfVehicle("Pepoli_2_1697", "R2").
possibleRouteOfVehicle("Pepoli_2_1697", "R3").
possibleRouteOfVehicle("Pepoli_2_1697", "R4").
possibleRouteOfVehicle("Pepoli_2_1697", "R5").
possibleRouteOfVehicle("Pepoli_2_1697", "R6").
possibleRouteOfVehicle("Pepoli_11_2093", "R7").
possibleRouteOfVehicle("Pepoli_12_1689", "R8").
possibleRouteOfVehicle("Pepoli_11_1408", "R7").
possibleRouteOfVehicle("XXI_Aprile_94_630", "R9").
possibleRouteOfVehicle("XXI_Aprile_102_851", "R10").
possibleRouteOfVehicle("Pepoli_11_1894", "R11").
possibleRouteOfVehicle("Pepoli_12_1663", "R12").
possibleRouteOfVehicle("Pepoli_11_1929", "R11").
possibleRouteOfVehicle("Pepoli_12_1252", "R13").
possibleRouteOfVehicle("Vittorio_Veneto_2_601", "R14").
possibleRouteOfVehicle("Pepoli_11_1567", "R15").
possibleRouteOfVehicle("XXI_Aprile_1_999", "R16").
possibleRouteOfVehicle("XXI_Aprile_7_746", "R17").
possibleRouteOfVehicle("Pepoli_11_1788", "R15").
possibleRouteOfVehicle("XXI_Aprile_7_770", "R18").
possibleRouteOfVehicle("Vittorio_Veneto_2_645", "R19").
possibleRouteOfVehicle("Pepoli_12_1506", "R20").
possibleRouteOfVehicle("Vittorio_Veneto_1_584", "R21").
possibleRouteOfVehicle("Pepoli_3_1596", "R22").
possibleRouteOfVehicle("XXI_Aprile_9_857", "R23").
possibleRouteOfVehicle("Togliatti_10_596", "R24").
possibleRouteOfVehicle("Togliatti_10_673", "R25").
possibleRouteOfVehicle("Pepoli_11_1970", "R15").
possibleRouteOfVehicle("Pepoli_2_1127", "R26").
possibleRouteOfVehicle("XXI_Aprile_7_819", "R27").
possibleRouteOfVehicle("Pepoli_11_1825", "R7").
possibleRouteOfVehicle("Vittorio_Veneto_10_374", "R28").
possibleRouteOfVehicle("XXI_Aprile_113_642", "R15").
possibleRouteOfVehicle("Audinot_1_160", "R29").
possibleRouteOfVehicle("Pepoli_3_1624", "R30").
possibleRouteOfVehicle("Vittorio_Veneto_10_653", "R31").
possibleRouteOfVehicle("Vittorio_Veneto_2_605", "R19").
possibleRouteOfVehicle("Togliatti_10_730", "R32").
possibleRouteOfVehicle("Vittorio_Veneto_1_660", "R33").
possibleRouteOfVehicle("Vittorio_Veneto_2_552", "R34").
possibleRouteOfVehicle("XXI_Aprile_104_773", "R35").
possibleRouteOfVehicle("Togliatti_11_658", "R36").
possibleRouteOfVehicle("Togliatti_10_585", "R24").
possibleRouteOfVehicle("Vittorio_Veneto_82_504", "R37").
possibleRouteOfVehicle("Costa_50_1365", "R38").
possibleRouteOfVehicle("Pepoli_11_1687", "R11").
possibleRouteOfVehicle("XXI_Aprile_102_627", "R28").
possibleRouteOfVehicle("Pepoli_11_1806", "R7").
possibleRouteOfVehicle("Togliatti_10_628", "R39").
possibleRouteOfVehicle("XXI_Aprile_12_954", "R40").
possibleRouteOfVehicle("XXI_Aprile_7_760", "R18").
possibleRouteOfVehicle("XXI_Aprile_7_928", "R41").
possibleRouteOfVehicle("Costa_200_1218", "R42").
possibleRouteOfVehicle("XXI_Aprile_1_983", "R43").
possibleRouteOfVehicle("Costa_11_1214", "R44").
possibleRouteOfVehicle("Pepoli_3_1472", "R45").
possibleRouteOfVehicle("Pepoli_3_1035", "R46").
possibleRouteOfVehicle("Vittorio_Veneto_2_627", "R19").
possibleRouteOfVehicle("Vittorio_Veneto_1_641", "R33").
possibleRouteOfVehicle("Vittorio_Veneto_2_575", "R47").
possibleRouteOfVehicle("Togliatti_10_616", "R24").
possibleRouteOfVehicle("Vittorio_Veneto_10_481", "R28").
possibleRouteOfVehicle("Togliatti_10_635", "R39").
possibleRouteOfVehicle("XXI_Aprile_7_791", "R18").
possibleRouteOfVehicle("Togliatti_10_710", "R39").
possibleRouteOfVehicle("Vittorio_Veneto_10_503", "R35").
possibleRouteOfVehicle("Pepoli_11_1947", "R11").
possibleRouteOfVehicle("Pepoli_2_1377", "R48").
possibleRouteOfVehicle("Costa_200_1327", "R35").
possibleRouteOfVehicle("Pepoli_11_1954", "R7").
possibleRouteOfVehicle("Togliatti_10_717", "R39").
possibleRouteOfVehicle("Vittorio_Veneto_1_586", "R49").
possibleRouteOfVehicle("Vittorio_Veneto_2_593", "R14").
possibleRouteOfVehicle("Togliatti_10_663", "R39").
possibleRouteOfVehicle("Pepoli_5_1480", "R50").
possibleRouteOfVehicle("Togliatti_9_575", "R51").
possibleRouteOfVehicle("Pepoli_11_2058", "R7").
possibleRouteOfVehicle("Togliatti_10_688", "R10").
possibleRouteOfVehicle("XXI_Aprile_93_822", "R52").
possibleRouteOfVehicle("Togliatti_71_722", "R53").
possibleRouteOfVehicle("XXI_Aprile_94_964", "R23").
possibleRouteOfVehicle("Pepoli_11_1867", "R11").
possibleRouteOfVehicle("Togliatti_9_650", "R54").
possibleRouteOfVehicle("Costa_70_1368", "R55").
possibleRouteOfVehicle("Costa_200_505", "R56").
possibleRouteOfVehicle("Pepoli_11_2054", "R7").
possibleRouteOfVehicle("Pepoli_11_1643", "R7").
possibleRouteOfVehicle("Togliatti_10_711", "R39").
possibleRouteOfVehicle("Pepoli_12_1427", "R57").
possibleRouteOfVehicle("XXI_Aprile_7_1010", "R58").
possibleRouteOfVehicle("Vittorio_Veneto_1_620", "R33").
possibleRouteOfVehicle("Pepoli_11_1964", "R7").
possibleRouteOfVehicle("Pepoli_11_2052", "R7").
possibleRouteOfVehicle("Pepoli_12_939", "R59").
possibleRouteOfVehicle("Pepoli_3_1402", "R60").
possibleRouteOfVehicle("Pepoli_11_1871", "R7").
possibleRouteOfVehicle("Vittorio_Veneto_1_591", "R49").
possibleRouteOfVehicle("Pepoli_3_1122", "R61").
possibleRouteOfVehicle("XXI_Aprile_113_823", "R7").
possibleRouteOfVehicle("Pepoli_11_1011", "R7").
possibleRouteOfVehicle("Pepoli_2_1571", "R2").
possibleRouteOfVehicle("Pepoli_3_978", "R46").
possibleRouteOfVehicle("XXI_Aprile_7_926", "R41").
possibleRouteOfVehicle("Pepoli_11_1760", "R11").
possibleRouteOfVehicle("Vittorio_Veneto_82_628", "R62").
possibleRouteOfVehicle("Costa_91_1119", "R9").
possibleRouteOfVehicle("Costa_200_240", "R42").
possibleRouteOfVehicle("XXI_Aprile_7_758", "R63").
possibleRouteOfVehicle("Pepoli_3_1140", "R64").
possibleRouteOfVehicle("Vittorio_Veneto_1_606", "R33").
possibleRouteOfVehicle("Vittorio_Veneto_1_551", "R65").
possibleRouteOfVehicle("Pepoli_11_1739", "R7").
possibleRouteOfVehicle("Pepoli_3_1443", "R45").
possibleRouteOfVehicle("Vittorio_Veneto_2_587", "R14").
possibleRouteOfVehicle("Costa_11_827", "R66").
possibleRouteOfVehicle("Costa_200_1230", "R28").
possibleRouteOfVehicle("Pepoli_11_1659", "R15").
possibleRouteOfVehicle("Vittorio_Veneto_1_598", "R49").
possibleRouteOfVehicle("Costa_200_1362", "R35").
possibleRouteOfVehicle("Vittorio_Veneto_1_621", "R33").
possibleRouteOfVehicle("Togliatti_9_703", "R54").
possibleRouteOfVehicle("Pepoli_11_1566", "R7").
possibleRouteOfVehicle("XXI_Aprile_94_898", "R9").
possibleRouteOfVehicle("Vittorio_Veneto_2_573", "R47").
possibleRouteOfVehicle("Vittorio_Veneto_10_672", "R67").
possibleRouteOfVehicle("Togliatti_10_731", "R39").
possibleRouteOfVehicle("Togliatti_11_692", "R36").
possibleRouteOfVehicle("Pepoli_12_1442", "R68").
possibleRouteOfVehicle("Costa_200_1262", "R42").
possibleRouteOfVehicle("Pepoli_2_1390", "R69").
possibleRouteOfVehicle("XXI_Aprile_93_359", "R52").
possibleRouteOfVehicle("Pepoli_11_2042", "R7").
possibleRouteOfVehicle("Pepoli_2_972", "R70").
possibleRouteOfVehicle("Pepoli_3_1148", "R64").
possibleRouteOfVehicle("Pepoli_3_1177", "R71").
possibleRouteOfVehicle("Vittorio_Veneto_10_656", "R67").
possibleRouteOfVehicle("Togliatti_9_466", "R52").
possibleRouteOfVehicle("Pepoli_1_1359", "R72").
possibleRouteOfVehicle("Pepoli_11_1938", "R7").
possibleRouteOfVehicle("XXI_Aprile_93_838", "R73").
possibleRouteOfVehicle("XXI_Aprile_5_881", "R74").
possibleRouteOfVehicle("XXI_Aprile_93_889", "R23").
possibleRouteOfVehicle("Costa_11_597", "R75").
possibleRouteOfVehicle("XXI_Aprile_113_518", "R66").
possibleRouteOfVehicle("Pepoli_11_1455", "R15").
possibleRouteOfVehicle("Pepoli_2_1440", "R76").
possibleRouteOfVehicle("Costa_200_220", "R42").
possibleRouteOfVehicle("Togliatti_10_670", "R39").
possibleRouteOfVehicle("Togliatti_5_630", "R77").
possibleRouteOfVehicle("Costa_200_1205", "R28").
possibleRouteOfVehicle("XXI_Aprile_7_830", "R78").
possibleRouteOfVehicle("XXI_Aprile_92_949", "R79").
possibleRouteOfVehicle("Pepoli_11_1499", "R7").
possibleRouteOfVehicle("XXI_Aprile_7_806", "R80").
possibleRouteOfVehicle("Togliatti_9_599", "R81").
possibleRouteOfVehicle("XXI_Aprile_7_828", "R82").
possibleRouteOfVehicle("Pepoli_11_1812", "R7").
possibleRouteOfVehicle("Vittorio_Veneto_1_579", "R21").
possibleRouteOfVehicle("Pepoli_11_2067", "R7").
possibleRouteOfVehicle("Vittorio_Veneto_10_398", "R28").
possibleRouteOfVehicle("Vittorio_Veneto_1_600", "R49").
possibleRouteOfVehicle("Pepoli_12_1672", "R83").
possibleRouteOfVehicle("Togliatti_9_646", "R54").
possibleRouteOfVehicle("XXI_Aprile_94_811", "R23").
possibleRouteOfVehicle("Pepoli_11_2084", "R11").
possibleRouteOfVehicle("XXI_Aprile_103_608", "R84").
possibleRouteOfVehicle("Togliatti_10_657", "R39").
possibleRouteOfVehicle("Vittorio_Veneto_1_566", "R65").
possibleRouteOfVehicle("XXI_Aprile_7_736", "R17").
possibleRouteOfVehicle("XXI_Aprile_7_875", "R85").
possibleRouteOfVehicle("XXI_Aprile_7_978", "R86").
possibleRouteOfVehicle("Pepoli_2_1090", "R87").
possibleRouteOfVehicle("XXI_Aprile_113_762", "R44").
possibleRouteOfVehicle("Pepoli_12_1290", "R88").
possibleRouteOfVehicle("Vittorio_Veneto_10_646", "R67").
possibleRouteOfVehicle("Pepoli_12_915", "R89").
possibleRouteOfVehicle("XXI_Aprile_113_987", "R90").
possibleRouteOfVehicle("XXI_Aprile_102_973", "R91").
possibleRouteOfVehicle("XXI_Aprile_7_976", "R92").
possibleRouteOfVehicle("XXI_Aprile_9_150", "R52").
possibleRouteOfVehicle("XXI_Aprile_7_908", "R85").
possibleRouteOfVehicle("Pepoli_11_2022", "R7").
possibleRouteOfVehicle("Togliatti_9_567", "R51").
possibleRouteOfVehicle("XXI_Aprile_113_959", "R93").
possibleRouteOfVehicle("Costa_200_1118", "R56").
possibleRouteOfVehicle("Togliatti_80_674", "R94").
possibleRouteOfVehicle("XXI_Aprile_7_904", "R41").
possibleRouteOfVehicle("Audinot_3_165", "R95").
possibleRouteOfVehicle("Pepoli_12_1201", "R96").
possibleRouteOfVehicle("XXI_Aprile_1_940", "R97").
possibleRouteOfVehicle("Pepoli_11_1365", "R15").
possibleRouteOfVehicle("XXI_Aprile_1_1006", "R98").
possibleRouteOfVehicle("Pepoli_11_1667", "R15").
possibleRouteOfVehicle("Vittorio_Veneto_10_589", "R99").
possibleRouteOfVehicle("Audinot_12_162", "R100").
possibleRouteOfVehicle("Vittorio_Veneto_2_557", "R101").
possibleRouteOfVehicle("Pepoli_3_1001", "R46").
possibleRouteOfVehicle("XXI_Aprile_94_899", "R9").
possibleRouteOfVehicle("Pepoli_3_1541", "R22").
possibleRouteOfVehicle("Costa_200_1224", "R28").
possibleRouteOfVehicle("Costa_200_501", "R56").
possibleRouteOfVehicle("Pepoli_11_2016", "R7").
possibleRouteOfVehicle("Vittorio_Veneto_10_431", "R28").
possibleRouteOfVehicle("Costa_200_1281", "R102").
possibleRouteOfVehicle("Pepoli_11_1736", "R11").
possibleRouteOfVehicle("Pepoli_11_2059", "R7").
possibleRouteOfVehicle("Costa_200_303", "R42").
possibleRouteOfVehicle("Pepoli_11_1997", "R7").
possibleRouteOfVehicle("Togliatti_71_723", "R103").
possibleRouteOfVehicle("Costa_200_555", "R104").
possibleRouteOfVehicle("Pepoli_3_1088", "R61").
possibleRouteOfVehicle("XXI_Aprile_93_653", "R105").
possibleRouteOfVehicle("Pepoli_11_2028", "R7").
possibleRouteOfVehicle("Pepoli_3_1082", "R61").
possibleRouteOfVehicle("XXI_Aprile_7_698", "R55").
possibleRouteOfVehicle("XXI_Aprile_7_932", "R82").
possibleRouteOfVehicle("Pepoli_11_1945", "R7").
possibleRouteOfVehicle("XXI_Aprile_94_339", "R52").
possibleRouteOfVehicle("XXI_Aprile_94_514", "R52").
possibleRouteOfVehicle("Vittorio_Veneto_10_387", "R28").
possibleRouteOfVehicle("Pepoli_3_1242", "R106").
possibleRouteOfVehicle("Audinot_10_139", "R84").
possibleRouteOfVehicle("XXI_Aprile_7_1002", "R107").
possibleRouteOfVehicle("Pepoli_11_1642", "R7").
possibleRouteOfVehicle("Pepoli_3_1105", "R61").
possibleRouteOfVehicle("Pepoli_12_899", "R89").
possibleRouteOfVehicle("XXI_Aprile_7_722", "R17").
possibleRouteOfVehicle("Audinot_7_163", "R108").
possibleRouteOfVehicle("Audinot_10_159", "R109").
possibleRouteOfVehicle("XXI_Aprile_1_943", "R97").
possibleRouteOfVehicle("Pepoli_11_2053", "R7").
possibleRouteOfVehicle("Pepoli_3_1060", "R61").
possibleRouteOfVehicle("XXI_Aprile_94_985", "R110").
possibleRouteOfVehicle("Costa_200_1216", "R42").
possibleRouteOfVehicle("Pepoli_11_2095", "R11").
possibleRouteOfVehicle("Pepoli_11_1547", "R7").
possibleRouteOfVehicle("Audinot_7_164", "R108").
possibleRouteOfVehicle("Pepoli_3_1560", "R22").
possibleRouteOfVehicle("XXI_Aprile_102_906", "R111").
possibleRouteOfVehicle("XXI_Aprile_9_761", "R73").
possibleRouteOfVehicle("Pepoli_11_1808", "R15").
possibleRouteOfVehicle("Pepoli_1_1524", "R112").
possibleRouteOfVehicle("XXI_Aprile_7_956", "R53").
possibleRouteOfVehicle("Togliatti_9_665", "R54").
possibleRouteOfVehicle("XXI_Aprile_7_962", "R41").
possibleRouteOfVehicle("Pepoli_11_1865", "R15").
possibleRouteOfVehicle("Vittorio_Veneto_1_570", "R21").
possibleRouteOfVehicle("XXI_Aprile_94_756", "R113").
possibleRouteOfVehicle("XXI_Aprile_7_901", "R85").
possibleRouteOfVehicle("Togliatti_10_615", "R24").
possibleRouteOfVehicle("Vittorio_Veneto_2_603", "R14").
possibleRouteOfVehicle("Pepoli_11_1982", "R7").
possibleRouteOfVehicle("Vittorio_Veneto_2_648", "R19").
possibleRouteOfVehicle("Costa_200_1100", "R28").
possibleRouteOfVehicle("Pepoli_12_1010", "R114").
possibleRouteOfVehicle("Pepoli_3_1588", "R22").
possibleRouteOfVehicle("Togliatti_9_621", "R54").
possibleRouteOfVehicle("XXI_Aprile_94_799", "R23").
possibleRouteOfVehicle("XXI_Aprile_104_961", "R115").
possibleRouteOfVehicle("XXI_Aprile_9_628", "R9").
possibleRouteOfVehicle("Vittorio_Veneto_10_463", "R28").
possibleRouteOfVehicle("XXI_Aprile_113_788", "R116").
possibleRouteOfVehicle("Pepoli_2_1194", "R117").
possibleRouteOfVehicle("Pepoli_11_1892", "R11").
possibleRouteOfVehicle("Costa_200_1240", "R28").
possibleRouteOfVehicle("XXI_Aprile_113_706", "R116").
possibleRouteOfVehicle("Vittorio_Veneto_2_594", "R14").
possibleRouteOfVehicle("XXI_Aprile_7_963", "R82").
possibleRouteOfVehicle("XXI_Aprile_2_990", "R118").
possibleRouteOfVehicle("Pepoli_11_1967", "R11").
possibleRouteOfVehicle("XXI_Aprile_93_950", "R23").
possibleRouteOfVehicle("XXI_Aprile_93_834", "R9").
possibleRouteOfVehicle("Togliatti_11_513", "R15").
possibleRouteOfVehicle("XXI_Aprile_12_921", "R119").
possibleRouteOfVehicle("Pepoli_11_1873", "R15").
possibleRouteOfVehicle("XXI_Aprile_1_825", "R65").
possibleRouteOfVehicle("Pepoli_11_1848", "R15").
possibleRouteOfVehicle("XXI_Aprile_7_998", "R120").
possibleRouteOfVehicle("Pepoli_12_911", "R89").
possibleRouteOfVehicle("XXI_Aprile_114_275", "R15").
possibleRouteOfVehicle("Pepoli_1_1676", "R121").
possibleRouteOfVehicle("Pepoli_11_1712", "R15").
possibleRouteOfVehicle("XXI_Aprile_7_952", "R122").
possibleRouteOfVehicle("Pepoli_11_1853", "R7").
possibleRouteOfVehicle("Costa_200_1257", "R28").
possibleRouteOfVehicle("Pepoli_12_1491", "R123").
possibleRouteOfVehicle("Pepoli_3_981", "R46").
possibleRouteOfVehicle("Togliatti_10_664", "R39").
possibleRouteOfVehicle("XXI_Aprile_9_981", "R110").
possibleRouteOfVehicle("Costa_50_1369", "R38").
possibleRouteOfVehicle("Togliatti_9_377", "R105").
possibleRouteOfVehicle("Audinot_12_149", "R124").
possibleRouteOfVehicle("Vittorio_Veneto_1_664", "R33").
possibleRouteOfVehicle("XXI_Aprile_102_588", "R28").
possibleRouteOfVehicle("Togliatti_10_606", "R24").
possibleRouteOfVehicle("XXI_Aprile_94_364", "R52").
possibleRouteOfVehicle("Togliatti_10_713", "R39").
possibleRouteOfVehicle("Togliatti_10_685", "R39").
possibleRouteOfVehicle("Togliatti_10_592", "R24").
possibleRouteOfVehicle("Pepoli_3_1077", "R61").
possibleRouteOfVehicle("Pepoli_11_1840", "R11").
possibleRouteOfVehicle("Vittorio_Veneto_2_623", "R19").
possibleRouteOfVehicle("XXI_Aprile_7_831", "R125").
possibleRouteOfVehicle("Pepoli_3_1492", "R22").
possibleRouteOfVehicle("Togliatti_10_734", "R39").
possibleRouteOfVehicle("Vittorio_Veneto_10_651", "R126").
possibleRouteOfVehicle("Pepoli_11_2062", "R7").
possibleRouteOfVehicle("Pepoli_2_977", "R70").
possibleRouteOfVehicle("Pepoli_11_1869", "R11").
possibleRouteOfVehicle("Togliatti_10_652", "R39").
possibleRouteOfVehicle("Pepoli_12_1287", "R88").
possibleRouteOfVehicle("Pepoli_11_1735", "R7").
possibleRouteOfVehicle("Costa_91_1150", "R9").
possibleRouteOfVehicle("Pepoli_11_1990", "R7").
possibleRouteOfVehicle("Togliatti_9_732", "R54").
possibleRouteOfVehicle("Pepoli_12_953", "R59").
possibleRouteOfVehicle("Togliatti_10_626", "R39").
possibleRouteOfVehicle("XXI_Aprile_102_726", "R35").
possibleRouteOfVehicle("Pepoli_2_1607", "R1").
possibleRouteOfVehicle("Pepoli_11_2017", "R7").
possibleRouteOfVehicle("Audinot_12_156", "R100").
possibleRouteOfVehicle("Costa_200_530", "R56").
possibleRouteOfVehicle("Costa_91_177", "R113").
possibleRouteOfVehicle("XXI_Aprile_7_702", "R55").
possibleRouteOfVehicle("Costa_700_1366", "R55").
possibleRouteOfVehicle("Costa_70_1373", "R55").
possibleRouteOfVehicle("Pepoli_12_1120", "R127").
possibleRouteOfVehicle("Togliatti_11_506", "R15").
possibleRouteOfVehicle("Vittorio_Veneto_2_654", "R19").
possibleRouteOfVehicle("Costa_200_546", "R56").
possibleRouteOfVehicle("XXI_Aprile_114_533", "R66").
possibleRouteOfVehicle("XXI_Aprile_93_896", "R52").
possibleRouteOfVehicle("XXI_Aprile_103_801", "R111").
possibleRouteOfVehicle("Pepoli_3_1163", "R64").
possibleRouteOfVehicle("Vittorio_Veneto_73_559", "R128").
possibleRouteOfVehicle("Costa_50_1356", "R38").
possibleRouteOfVehicle("Pepoli_3_1469", "R45").
possibleRouteOfVehicle("XXI_Aprile_7_740", "R17").
possibleRouteOfVehicle("Pepoli_8_143", "R129").
possibleRouteOfVehicle("XXI_Aprile_5_1005", "R130").
possibleRouteOfVehicle("Pepoli_11_2047", "R11").
possibleRouteOfVehicle("XXI_Aprile_7_989", "R131").
possibleRouteOfVehicle("Pepoli_3_1598", "R22").
possibleRouteOfVehicle("XXI_Aprile_102_566", "R28").
possibleRouteOfVehicle("XXI_Aprile_7_755", "R63").
possibleRouteOfVehicle("XXI_Aprile_5_993", "R132").
possibleRouteOfVehicle("XXI_Aprile_7_1011", "R133").
possibleRouteOfVehicle("XXI_Aprile_7_764", "R18").
possibleRouteOfVehicle("Costa_200_917", "R28").
possibleRouteOfVehicle("XXI_Aprile_94_661", "R105").
possibleRouteOfVehicle("XXI_Aprile_93_562", "R9").
possibleRouteOfVehicle("Costa_50_1358", "R38").
possibleRouteOfVehicle("Pepoli_11_2056", "R7").
possibleRouteOfVehicle("XXI_Aprile_93_614", "R9").
possibleRouteOfVehicle("Pepoli_11_2009", "R15").
possibleRouteOfVehicle("XXI_Aprile_1_984", "R134").
possibleRouteOfVehicle("Pepoli_12_1314", "R13").
possibleRouteOfVehicle("Pepoli_12_1570", "R20").
possibleRouteOfVehicle("Pepoli_11_1764", "R7").
possibleRouteOfVehicle("XXI_Aprile_1_1004", "R135").
possibleRouteOfVehicle("Pepoli_11_1870", "R15").
possibleRouteOfVehicle("Pepoli_12_1608", "R20").
possibleRouteOfVehicle("XXI_Aprile_7_842", "R136").
possibleRouteOfVehicle("XXI_Aprile_8_737", "R129").
possibleRouteOfVehicle("Vittorio_Veneto_1_638", "R33").
possibleRouteOfVehicle("Vittorio_Veneto_82_595", "R137").
possibleRouteOfVehicle("XXI_Aprile_7_1009", "R58").
possibleRouteOfVehicle("Togliatti_10_671", "R39").
possibleRouteOfVehicle("XXI_Aprile_113_565", "R66").
possibleRouteOfVehicle("XXI_Aprile_94_863", "R9").
possibleRouteOfVehicle("Pepoli_3_1092", "R61").
possibleRouteOfVehicle("XXI_Aprile_93_503", "R9").
possibleRouteOfVehicle("Pepoli_11_1767", "R11").
possibleRouteOfVehicle("XXI_Aprile_7_946", "R82").
possibleRouteOfVehicle("Pepoli_5_1543", "R138").
possibleRouteOfVehicle("Pepoli_11_1822", "R15").
possibleRouteOfVehicle("Togliatti_11_681", "R7").
possibleRouteOfVehicle("Pepoli_11_1973", "R15").
possibleRouteOfVehicle("XXI_Aprile_7_982", "R139").
possibleRouteOfVehicle("Costa_11_841", "R66").
possibleRouteOfVehicle("XXI_Aprile_7_711", "R55").
possibleRouteOfVehicle("Costa_91_166", "R105").
possibleRouteOfVehicle("Pepoli_3_1261", "R106").
possibleRouteOfVehicle("XXI_Aprile_7_902", "R125").
possibleRouteOfVehicle("Vittorio_Veneto_73_583", "R128").
possibleRouteOfVehicle("XXI_Aprile_7_919", "R41").
possibleRouteOfVehicle("Pepoli_1_1519", "R112").
possibleRouteOfVehicle("XXI_Aprile_93_189", "R105").
possibleRouteOfVehicle("Togliatti_11_697", "R36").
possibleRouteOfVehicle("XXI_Aprile_102_713", "R35").
possibleRouteOfVehicle("Pepoli_11_1857", "R11").
possibleRouteOfVehicle("Togliatti_10_584", "R24").
possibleRouteOfVehicle("Pepoli_2_1217", "R140").
possibleRouteOfVehicle("XXI_Aprile_12_980", "R141").
possibleRouteOfVehicle("Vittorio_Veneto_10_610", "R67").
possibleRouteOfVehicle("XXI_Aprile_7_792", "R78").
possibleRouteOfVehicle("XXI_Aprile_9_497", "R9").
possibleRouteOfVehicle("Togliatti_10_598", "R24").
possibleRouteOfVehicle("XXI_Aprile_12_986", "R141").
possibleRouteOfVehicle("Pepoli_3_1392", "R142").
possibleRouteOfVehicle("Pepoli_3_976", "R46").
possibleRouteOfVehicle("Vittorio_Veneto_2_592", "R14").
possibleRouteOfVehicle("XXI_Aprile_7_957", "R53").
possibleRouteOfVehicle("Pepoli_3_1602", "R22").
possibleRouteOfVehicle("Pepoli_11_1651", "R7").
possibleRouteOfVehicle("Vittorio_Veneto_10_669", "R67").
possibleRouteOfVehicle("Vittorio_Veneto_10_517", "R32").
possibleRouteOfVehicle("Vittorio_Veneto_73_670", "R143").
possibleRouteOfVehicle("Vittorio_Veneto_10_535", "R32").
possibleRouteOfVehicle("XXI_Aprile_113_829", "R144").
possibleRouteOfVehicle("Vittorio_Veneto_2_582", "R47").
possibleRouteOfVehicle("Pepoli_11_1931", "R15").
possibleRouteOfVehicle("Vittorio_Veneto_10_291", "R102").
possibleRouteOfVehicle("XXI_Aprile_7_733", "R17").
possibleRouteOfVehicle("Costa_91_273", "R105").
possibleRouteOfVehicle("Pepoli_11_1839", "R15").
possibleRouteOfVehicle("XXI_Aprile_7_915", "R82").
possibleRouteOfVehicle("XXI_Aprile_93_991", "R145").
possibleRouteOfVehicle("Pepoli_11_1514", "R7").
possibleRouteOfVehicle("XXI_Aprile_8_744", "R129").
possibleRouteOfVehicle("Pepoli_12_1482", "R146").
possibleRouteOfVehicle("Pepoli_11_2024", "R15").
possibleRouteOfVehicle("Vittorio_Veneto_1_597", "R49").
possibleRouteOfVehicle("Vittorio_Veneto_73_618", "R143").
possibleRouteOfVehicle("Pepoli_3_1176", "R64").
possibleRouteOfVehicle("Togliatti_10_581", "R24").
possibleRouteOfVehicle("XXI_Aprile_1_942", "R97").
possibleRouteOfVehicle("XXI_Aprile_7_951", "R147").
possibleRouteOfVehicle("Togliatti_9_728", "R148").
possibleRouteOfVehicle("XXI_Aprile_94_880", "R149").
possibleRouteOfVehicle("Vittorio_Veneto_10_640", "R67").
possibleRouteOfVehicle("XXI_Aprile_8_864", "R129").
possibleRouteOfVehicle("Pepoli_11_2098", "R7").
possibleRouteOfVehicle("Costa_200_1357", "R56").
possibleRouteOfVehicle("Togliatti_9_620", "R54").
possibleRouteOfVehicle("Pepoli_11_1827", "R11").
possibleRouteOfVehicle("Vittorio_Veneto_10_413", "R28").
possibleRouteOfVehicle("Vittorio_Veneto_1_647", "R33").
possibleRouteOfVehicle("Costa_200_256", "R42").
possibleRouteOfVehicle("XXI_Aprile_7_742", "R17").
possibleRouteOfVehicle("Costa_200_1305", "R35").
possibleRouteOfVehicle("Togliatti_10_597", "R24").
possibleRouteOfVehicle("Pepoli_12_1531", "R20").
possibleRouteOfVehicle("XXI_Aprile_7_723", "R17").
possibleRouteOfVehicle("XXI_Aprile_7_913", "R85").
possibleRouteOfVehicle("Togliatti_9_482", "R52").
possibleRouteOfVehicle("XXI_Aprile_12_988", "R141").
possibleRouteOfVehicle("XXI_Aprile_102_625", "R28").
possibleRouteOfVehicle("XXI_Aprile_103_370", "R56").
possibleRouteOfVehicle("Togliatti_10_682", "R10").
possibleRouteOfVehicle("Pepoli_11_1979", "R7").
possibleRouteOfVehicle("Vittorio_Veneto_1_642", "R33").
possibleRouteOfVehicle("XXI_Aprile_102_197", "R42").
possibleRouteOfVehicle("XXI_Aprile_7_979", "R53").
possibleRouteOfVehicle("Pepoli_3_1132", "R64").
possibleRouteOfVehicle("Togliatti_10_378", "R42").
possibleRouteOfVehicle("Pepoli_11_2050", "R7").
possibleRouteOfVehicle("Vittorio_Veneto_1_655", "R33").
possibleRouteOfVehicle("Costa_200_211", "R56").
possibleRouteOfVehicle("Costa_91_1261", "R73").
possibleRouteOfVehicle("XXI_Aprile_93_287", "R52").
possibleRouteOfVehicle("Vittorio_Veneto_10_499", "R35").
possibleRouteOfVehicle("Togliatti_10_601", "R24").
possibleRouteOfVehicle("Pepoli_11_1897", "R15").
possibleRouteOfVehicle("Costa_50_1370", "R38").
possibleRouteOfVehicle("Pepoli_11_2079", "R7").
possibleRouteOfVehicle("Pepoli_12_961", "R114").
possibleRouteOfVehicle("Pepoli_3_1265", "R150").
possibleRouteOfVehicle("Costa_200_411", "R104").
possibleRouteOfVehicle("Vittorio_Veneto_10_404", "R28").
possibleRouteOfVehicle("Vittorio_Veneto_2_585", "R47").
possibleRouteOfVehicle("Togliatti_10_577", "R24").
possibleRouteOfVehicle("Togliatti_10_595", "R24").
possibleRouteOfVehicle("XXI_Aprile_94_841", "R73").
possibleRouteOfVehicle("Pepoli_11_1313", "R15").
possibleRouteOfVehicle("Pepoli_11_1616", "R15").
possibleRouteOfVehicle("Pepoli_11_1829", "R15").
possibleRouteOfVehicle("Pepoli_11_1861", "R7").
possibleRouteOfVehicle("Pepoli_12_1649", "R20").
possibleRouteOfVehicle("Togliatti_9_642", "R54").
possibleRouteOfVehicle("XXI_Aprile_7_920", "R82").
possibleRouteOfVehicle("Pepoli_3_1580", "R30").
possibleRouteOfVehicle("XXI_Aprile_7_972", "R92").
possibleRouteOfVehicle("XXI_Aprile_94_498", "R105").
possibleRouteOfVehicle("Togliatti_10_727", "R32").
possibleRouteOfVehicle("Pepoli_3_1601", "R30").
possibleRouteOfVehicle("Vittorio_Veneto_2_644", "R19").
possibleRouteOfVehicle("Togliatti_10_589", "R24").
possibleRouteOfVehicle("XXI_Aprile_1_840", "R65").
possibleRouteOfVehicle("Pepoli_3_1185", "R71").
possibleRouteOfVehicle("Costa_200_1287", "R28").
possibleRouteOfVehicle("Pepoli_3_1043", "R46").
possibleRouteOfVehicle("XXI_Aprile_9_532", "R52").
possibleRouteOfVehicle("Vittorio_Veneto_1_604", "R49").
possibleRouteOfVehicle("Pepoli_11_1701", "R11").
possibleRouteOfVehicle("Togliatti_10_486", "R56").
possibleRouteOfVehicle("XXI_Aprile_94_774", "R73").
possibleRouteOfVehicle("Pepoli_3_1030", "R46").
possibleRouteOfVehicle("Pepoli_3_1208", "R151").
possibleRouteOfVehicle("Pepoli_11_1883", "R7").
possibleRouteOfVehicle("Togliatti_10_602", "R24").
possibleRouteOfVehicle("Vittorio_Veneto_10_494", "R35").
possibleRouteOfVehicle("XXI_Aprile_7_794", "R78").
possibleRouteOfVehicle("XXI_Aprile_7_749", "R17").
possibleRouteOfVehicle("Vittorio_Veneto_2_563", "R34").
possibleRouteOfVehicle("Pepoli_12_1409", "R68").
possibleRouteOfVehicle("Pepoli_3_1329", "R150").
possibleRouteOfVehicle("Vittorio_Veneto_32_632", "R152").
possibleRouteOfVehicle("XXI_Aprile_12_847", "R153").
possibleRouteOfVehicle("Pepoli_12_901", "R89").
possibleRouteOfVehicle("Pepoli_3_1089", "R61").
possibleRouteOfVehicle("Pepoli_3_1494", "R22").
possibleRouteOfVehicle("Pepoli_12_1410", "R57").
possibleRouteOfVehicle("Pepoli_3_1074", "R61").
possibleRouteOfVehicle("Togliatti_11_516", "R66").
possibleRouteOfVehicle("Vittorio_Veneto_1_633", "R33").
possibleRouteOfVehicle("Togliatti_10_578", "R24").
possibleRouteOfVehicle("Pepoli_11_138", "R15").
possibleRouteOfVehicle("Togliatti_10_467", "R56").
possibleRouteOfVehicle("Togliatti_11_691", "R36").
possibleRouteOfVehicle("Togliatti_9_593", "R81").
possibleRouteOfVehicle("Togliatti_10_641", "R39").
possibleRouteOfVehicle("Togliatti_10_648", "R39").
possibleRouteOfVehicle("Vittorio_Veneto_10_489", "R35").
possibleRouteOfVehicle("XXI_Aprile_1_848", "R154").
possibleRouteOfVehicle("Pepoli_11_1886", "R11").
possibleRouteOfVehicle("Pepoli_11_1958", "R15").
possibleRouteOfVehicle("Costa_200_851", "R56").
possibleRouteOfVehicle("Pepoli_11_1989", "R7").
possibleRouteOfVehicle("Vittorio_Veneto_2_622", "R19").
possibleRouteOfVehicle("Pepoli_12_987", "R114").
possibleRouteOfVehicle("Costa_50_1360", "R38").
possibleRouteOfVehicle("Pepoli_11_1591", "R15").
possibleRouteOfVehicle("Pepoli_3_1661", "R30").
possibleRouteOfVehicle("Pepoli_3_1555", "R22").
possibleRouteOfVehicle("Pepoli_11_1957", "R7").
possibleRouteOfVehicle("XXI_Aprile_7_699", "R55").
possibleRouteOfVehicle("XXI_Aprile_7_992", "R107").
possibleRouteOfVehicle("Pepoli_11_1924", "R15").
possibleRouteOfVehicle("Pepoli_11_2085", "R11").
possibleRouteOfVehicle("Pepoli_12_1675", "R83").
possibleRouteOfVehicle("Costa_200_1195", "R28").
possibleRouteOfVehicle("Vittorio_Veneto_10_536", "R32").
possibleRouteOfVehicle("Pepoli_12_1678", "R8").
possibleRouteOfVehicle("XXI_Aprile_113_933", "R155").
possibleRouteOfVehicle("XXI_Aprile_7_925", "R82").
possibleRouteOfVehicle("XXI_Aprile_102_511", "R104").
possibleRouteOfVehicle("Pepoli_11_1913", "R15").
possibleRouteOfVehicle("Pepoli_3_1062", "R61").
possibleRouteOfVehicle("Pepoli_3_1330", "R150").
possibleRouteOfVehicle("Pepoli_3_1638", "R22").
possibleRouteOfVehicle("Costa_91_921", "R52").
possibleRouteOfVehicle("Costa_200_213", "R42").
possibleRouteOfVehicle("Pepoli_1_1106", "R156").
possibleRouteOfVehicle("XXI_Aprile_102_574", "R28").
possibleRouteOfVehicle("XXI_Aprile_102_622", "R28").
possibleRouteOfVehicle("XXI_Aprile_7_938", "R82").
possibleRouteOfVehicle("Costa_200_1032", "R56").
possibleRouteOfVehicle("Pepoli_11_2065", "R11").
possibleRouteOfVehicle("Pepoli_11_734", "R7").
possibleRouteOfVehicle("Pepoli_11_1631", "R7").
possibleRouteOfVehicle("Pepoli_11_1656", "R7").
possibleRouteOfVehicle("Pepoli_11_2076", "R7").
possibleRouteOfVehicle("Pepoli_11_176", "R66").
possibleRouteOfVehicle("Pepoli_11_1936", "R7").
possibleRouteOfVehicle("Audinot_10_135", "R84").
possibleRouteOfVehicle("XXI_Aprile_94_1001", "R157").
possibleRouteOfVehicle("Pepoli_11_1888", "R15").
possibleRouteOfVehicle("XXI_Aprile_7_809", "R80").
possibleRouteOfVehicle("Pepoli_12_1315", "R158").
possibleRouteOfVehicle("XXI_Aprile_113_824", "R44").
possibleRouteOfVehicle("Togliatti_10_618", "R39").
possibleRouteOfVehicle("Vittorio_Veneto_10_448", "R28").
possibleRouteOfVehicle("Vittorio_Veneto_1_550", "R65").
possibleRouteOfVehicle("Pepoli_11_2078", "R7").
possibleRouteOfVehicle("XXI_Aprile_2_995", "R159").
possibleRouteOfVehicle("Togliatti_10_649", "R39").
possibleRouteOfVehicle("Togliatti_10_356", "R42").
possibleRouteOfVehicle("Costa_200_1007", "R56").
possibleRouteOfVehicle("Pepoli_3_1411", "R160").
possibleRouteOfVehicle("Pepoli_11_1834", "R7").
possibleRouteOfVehicle("Togliatti_10_483", "R84").
possibleRouteOfVehicle("Pepoli_11_1836", "R11").
possibleRouteOfVehicle("Vittorio_Veneto_73_588", "R161").
possibleRouteOfVehicle("Vittorio_Veneto_1_650", "R33").
possibleRouteOfVehicle("Pepoli_3_1008", "R46").
possibleRouteOfVehicle("XXI_Aprile_7_845", "R82").
possibleRouteOfVehicle("Vittorio_Veneto_2_637", "R19").
possibleRouteOfVehicle("Pepoli_2_962", "R70").
possibleRouteOfVehicle("Audinot_12_161", "R100").
possibleRouteOfVehicle("Pepoli_11_1824", "R7").
possibleRouteOfVehicle("Togliatti_80_669", "R162").
possibleRouteOfVehicle("Vittorio_Veneto_10_668", "R67").
possibleRouteOfVehicle("Vittorio_Veneto_2_658", "R19").
possibleRouteOfVehicle("Vittorio_Veneto_73_667", "R143").
possibleRouteOfVehicle("Pepoli_3_1357", "R150").
possibleRouteOfVehicle("Pepoli_3_1156", "R64").
possibleRouteOfVehicle("Pepoli_3_1362", "R150").
possibleRouteOfVehicle("Togliatti_10_721", "R32").
possibleRouteOfVehicle("Pepoli_2_1438", "R76").
possibleRouteOfVehicle("Pepoli_3_1050", "R46").
possibleRouteOfVehicle("XXI_Aprile_113_678", "R15").
possibleRouteOfVehicle("Audinot_9_167", "R163").
possibleRouteOfVehicle("Togliatti_5_704", "R77").
possibleRouteOfVehicle("Vittorio_Veneto_10_510", "R35").
possibleRouteOfVehicle("XXI_Aprile_7_769", "R18").
possibleRouteOfVehicle("Vittorio_Veneto_3_568", "R164").
possibleRouteOfVehicle("XXI_Aprile_7_945", "R147").
possibleRouteOfVehicle("XXI_Aprile_94_693", "R165").
possibleRouteOfVehicle("XXI_Aprile_7_977", "R92").
possibleRouteOfVehicle("XXI_Aprile_92_584", "R9").
possibleRouteOfVehicle("XXI_Aprile_7_703", "R55").
possibleRouteOfVehicle("Vittorio_Veneto_2_659", "R19").
possibleRouteOfVehicle("Vittorio_Veneto_2_560", "R34").
possibleRouteOfVehicle("Costa_200_1152", "R28").
possibleRouteOfVehicle("Vittorio_Veneto_10_577", "R32").
possibleRouteOfVehicle("Togliatti_9_416", "R113").
possibleRouteOfVehicle("Turati_10_30", "R42").
possibleRouteOfVehicle("XXI_Aprile_103_619", "R28").
possibleRouteOfVehicle("Costa_91_1213", "R9").
possibleRouteOfVehicle("Togliatti_10_605", "R24").
possibleRouteOfVehicle("Togliatti_10_614", "R24").
possibleRouteOfVehicle("XXI_Aprile_113_895", "R166").
possibleRouteOfVehicle("XXI_Aprile_7_767", "R18").
possibleRouteOfVehicle("Vittorio_Veneto_10_488", "R35").
possibleRouteOfVehicle("Costa_200_1343", "R35").
possibleRouteOfVehicle("Pepoli_11_1972", "R7").
possibleRouteOfVehicle("Audinot_5_158", "R167").
possibleRouteOfVehicle("XXI_Aprile_113_771", "R66").
possibleRouteOfVehicle("Costa_200_488", "R56").
possibleRouteOfVehicle("Pepoli_3_1619", "R30").
possibleRouteOfVehicle("Pepoli_11_2049", "R7").
possibleRouteOfVehicle("Costa_50_1372", "R38").
possibleRouteOfVehicle("Togliatti_10_446", "R56").
possibleRouteOfVehicle("Costa_200_737", "R56").
possibleRouteOfVehicle("Pepoli_3_1038", "R46").
possibleRouteOfVehicle("XXI_Aprile_7_970", "R168").
possibleRouteOfVehicle("Pepoli_11_1983", "R7").
possibleRouteOfVehicle("XXI_Aprile_94_787", "R51").
possibleRouteOfVehicle("Vittorio_Veneto_1_649", "R33").
possibleRouteOfVehicle("Vittorio_Veneto_1_662", "R33").
possibleRouteOfVehicle("Costa_50_1364", "R38").
possibleRouteOfVehicle("Vittorio_Veneto_10_444", "R28").
possibleRouteOfVehicle("Vittorio_Veneto_1_616", "R33").
possibleRouteOfVehicle("Pepoli_11_1868", "R7").
possibleRouteOfVehicle("Pepoli_12_1550", "R20").
possibleRouteOfVehicle("Pepoli_11_1960", "R15").
possibleRouteOfVehicle("Togliatti_10_580", "R24").
possibleRouteOfVehicle("Audinot_3_148", "R61").
possibleRouteOfVehicle("Pepoli_3_1504", "R30").
possibleRouteOfVehicle("XXI_Aprile_7_905", "R41").
possibleRouteOfVehicle("XXI_Aprile_102_837", "R111").
possibleRouteOfVehicle("Togliatti_10_476", "R42").
possibleRouteOfVehicle("Pepoli_3_1380", "R106").
possibleRouteOfVehicle("Togliatti_9_678", "R54").
possibleRouteOfVehicle("XXI_Aprile_7_917", "R82").
possibleRouteOfVehicle("Pepoli_11_1637", "R11").
possibleRouteOfVehicle("XXI_Aprile_102_795", "R111").
possibleRouteOfVehicle("XXI_Aprile_7_971", "R168").
possibleRouteOfVehicle("Pepoli_11_1276", "R7").
possibleRouteOfVehicle("Pepoli_12_942", "R59").
possibleRouteOfVehicle("Togliatti_10_695", "R39").
possibleRouteOfVehicle("Pepoli_11_1912", "R7").
possibleRouteOfVehicle("XXI_Aprile_7_798", "R78").
possibleRouteOfVehicle("Togliatti_9_675", "R169").
possibleRouteOfVehicle("XXI_Aprile_7_997", "R170").
possibleRouteOfVehicle("Costa_200_1036", "R56").
possibleRouteOfVehicle("Togliatti_10_662", "R39").
possibleRouteOfVehicle("XXI_Aprile_7_835", "R136").
possibleRouteOfVehicle("Vittorio_Veneto_1_578", "R21").
possibleRouteOfVehicle("Pepoli_12_1589", "R20").
possibleRouteOfVehicle("Togliatti_10_634", "R39").
possibleRouteOfVehicle("Pepoli_11_2011", "R11").
possibleRouteOfVehicle("Togliatti_10_677", "R39").
possibleRouteOfVehicle("Pepoli_3_1381", "R106").
possibleRouteOfVehicle("Pepoli_11_2040", "R15").
possibleRouteOfVehicle("Pepoli_11_1898", "R11").
possibleRouteOfVehicle("XXI_Aprile_7_728", "R17").
possibleRouteOfVehicle("XXI_Aprile_8_780", "R94").
possibleRouteOfVehicle("Pepoli_5_1471", "R50").
possibleRouteOfVehicle("XXI_Aprile_1_960", "R65").
possibleRouteOfVehicle("Togliatti_10_474", "R56").
possibleRouteOfVehicle("Togliatti_10_609", "R24").
possibleRouteOfVehicle("Vittorio_Veneto_2_548", "R101").
possibleRouteOfVehicle("Pepoli_11_1562", "R7").
possibleRouteOfVehicle("Pepoli_11_1922", "R11").
possibleRouteOfVehicle("XXI_Aprile_7_717", "R17").
possibleRouteOfVehicle("Pepoli_11_1679", "R7").
possibleRouteOfVehicle("Vittorio_Veneto_2_666", "R19").
possibleRouteOfVehicle("XXI_Aprile_7_732", "R17").
possibleRouteOfVehicle("Vittorio_Veneto_10_427", "R28").
possibleRouteOfVehicle("Pepoli_3_1625", "R30").
possibleRouteOfVehicle("Togliatti_10_690", "R39").
possibleRouteOfVehicle("Togliatti_10_497", "R42").
possibleRouteOfVehicle("Pepoli_11_1703", "R7").
possibleRouteOfVehicle("Pepoli_11_2029", "R7").
possibleRouteOfVehicle("Pepoli_12_1166", "R124").
possibleRouteOfVehicle("XXI_Aprile_7_947", "R78").
possibleRouteOfVehicle("Pepoli_3_1518", "R30").
possibleRouteOfVehicle("XXI_Aprile_103_380", "R56").
possibleRouteOfVehicle("Pepoli_11_1955", "R11").
possibleRouteOfVehicle("Vittorio_Veneto_10_556", "R32").
possibleRouteOfVehicle("Vittorio_Veneto_10_417", "R28").
possibleRouteOfVehicle("XXI_Aprile_102_869", "R56").
possibleRouteOfVehicle("Togliatti_10_705", "R39").
possibleRouteOfVehicle("Pepoli_3_1622", "R30").
possibleRouteOfVehicle("Pepoli_11_1977", "R7").
possibleRouteOfVehicle("Togliatti_9_724", "R171").
possibleRouteOfVehicle("Pepoli_11_1884", "R7").
possibleRouteOfVehicle("XXI_Aprile_102_820", "R111").
possibleRouteOfVehicle("Vittorio_Veneto_10_609", "R67").
possibleRouteOfVehicle("XXI_Aprile_7_793", "R78").
possibleRouteOfVehicle("Pepoli_11_1918", "R7").
possibleRouteOfVehicle("Vittorio_Veneto_2_617", "R19").
possibleRouteOfVehicle("Pepoli_11_1943", "R7").
possibleRouteOfVehicle("Pepoli_11_612", "R15").
possibleRouteOfVehicle("Togliatti_11_612", "R172").
possibleRouteOfVehicle("XXI_Aprile_7_812", "R136").
possibleRouteOfVehicle("XXI_Aprile_7_888", "R136").
possibleRouteOfVehicle("Pepoli_12_1484", "R146").
possibleRouteOfVehicle("Costa_200_1235", "R28").
possibleRouteOfVehicle("Pepoli_11_1864", "R15").
possibleRouteOfVehicle("Pepoli_11_2038", "R7").
possibleRouteOfVehicle("Pepoli_11_2045", "R7").
possibleRouteOfVehicle("XXI_Aprile_1_885", "R154").
possibleRouteOfVehicle("Pepoli_3_1517", "R30").
possibleRouteOfVehicle("Costa_200_1167", "R28").
possibleRouteOfVehicle("XXI_Aprile_1_996", "R16").
possibleRouteOfVehicle("Vittorio_Veneto_10_611", "R67").
possibleRouteOfVehicle("Togliatti_9_426", "R52").
possibleRouteOfVehicle("Pepoli_11_1885", "R15").
possibleRouteOfVehicle("Pepoli_12_948", "R59").
possibleRouteOfVehicle("XXI_Aprile_1_1008", "R173").
possibleRouteOfVehicle("Pepoli_11_2082", "R7").
possibleRouteOfVehicle("Pepoli_12_1200", "R96").
possibleRouteOfVehicle("Togliatti_11_668", "R36").
possibleRouteOfVehicle("Costa_11_849", "R66").
possibleRouteOfVehicle("Pepoli_11_1860", "R174").
possibleRouteOfVehicle("Pepoli_3_1639", "R30").
possibleRouteOfVehicle("Pepoli_3_1303", "R150").
possibleRouteOfVehicle("Pepoli_11_2014", "R15").
possibleRouteOfVehicle("XXI_Aprile_12_807", "R175").
possibleRouteOfVehicle("Costa_200_504", "R56").
possibleRouteOfVehicle("Costa_200_1291", "R104").
possibleRouteOfVehicle("Vittorio_Veneto_10_562", "R32").
possibleRouteOfVehicle("XXI_Aprile_7_786", "R18").
possibleRouteOfVehicle("Costa_200_552", "R56").
possibleRouteOfVehicle("XXI_Aprile_9_527", "R105").
possibleRouteOfVehicle("Pepoli_11_1965", "R7").
possibleRouteOfVehicle("Togliatti_11_686", "R15").
possibleRouteOfVehicle("XXI_Aprile_92_878", "R52").
possibleRouteOfVehicle("Audinot_3_152", "R106").
possibleRouteOfVehicle("Pepoli_11_1489", "R15").
possibleRouteOfVehicle("Costa_200_749", "R28").
possibleRouteOfVehicle("XXI_Aprile_5_1007", "R176").
possibleRouteOfVehicle("Pepoli_11_1724", "R15").
possibleRouteOfVehicle("Togliatti_10_720", "R39").
possibleRouteOfVehicle("Pepoli_11_1744", "R7").
possibleRouteOfVehicle("XXI_Aprile_7_832", "R125").
possibleRouteOfVehicle("Pepoli_11_1850", "R11").
possibleRouteOfVehicle("Pepoli_11_1627", "R15").
possibleRouteOfVehicle("Pepoli_3_1297", "R150").
possibleRouteOfVehicle("Costa_200_762", "R56").
possibleRouteOfVehicle("Vittorio_Veneto_10_298", "R56").
possibleRouteOfVehicle("Pepoli_11_1054", "R15").
possibleRouteOfVehicle("Pepoli_11_1856", "R15").
possibleRouteOfVehicle("XXI_Aprile_7_858", "R125").
possibleRouteOfVehicle("XXI_Aprile_7_754", "R63").
time(0).
time(5).
time(10).
time(15).
time(20).
time(25).
time(30).
time(35).
time(40).
time(45).
time(50).
time(55).
time(60).
time(65).
time(70).
time(75).
time(80).
time(85).
time(90).
time(95).
time(100).
time(105).
time(110).
time(115).
time(120).
time(125).
time(130).
time(135).
time(140).
time(145).
time(150).
time(155).
time(160).
time(165).
time(170).
time(175).
time(180).
time(185).
time(190).
time(195).
time(200).
time(205).
time(210).
time(215).
time(220).
time(225).
time(230).
time(235).
time(240).
time(245).
time(250).
time(255).
time(260).
time(265).
time(270).
time(275).
time(280).
time(285).
time(290).
time(295).
time(300).
time(305).
time(310).
time(315).
time(320).
time(325).
time(330).
time(335).
time(340).
time(345).
time(350).
time(355).
time(360).
time(365).
time(370).
time(375).
time(380).
time(385).
time(390).
time(395).
time(400).
time(405).
time(410).
time(415).
time(420).
time(425).
time(430).
time(435).
time(440).
time(445).
time(450).
time(455).
time(460).
time(465).
time(470).
time(475).
time(480).
time(485).
time(490).
time(495).
time(500).
time(505).
time(510).
time(515).
time(520).
time(525).
time(530).
time(535).
time(540).
time(545).
time(550).
time(555).
time(560).
time(565).
time(570).
time(575).
time(580).
time(585).
time(590).
time(595).
time(600).
time(605).
time(610).
time(615).
time(620).
time(625).
time(630).
time(635).
time(640).
time(645).
time(650).
time(655).
time(660).
time(665).
time(670).
time(675).
time(680).
time(685).
time(690).
time(695).
time(700).
time(705).
time(710).
time(715).
time(720).
time(725).
time(730).
time(735).
time(740).
time(745).
time(750).
time(755).
time(760).
time(765).
time(770).
time(775).
time(780).
time(785).
time(790).
time(795).
time(800).
time(805).
time(810).
time(815).
time(820).
time(825).
time(830).
time(835).
time(840).
time(845).
time(850).
time(855).
time(860).
time(865).
time(870).
time(875).
time(880).
time(885).
time(890).
time(895).
time(900).
time(905).
time(910).
time(915).
time(920).
time(925).
time(930).
time(935).
time(940).
time(945).
time(950).
time(955).
time(960).
time(965).
time(970).
time(975).
time(980).
time(985).
time(990).
time(995).
time(1000).
time(1005).
time(1010).
time(1015).
time(1020).
time(1025).
time(1030).
time(1035).
time(1040).
time(1045).
time(1050).
time(1055).
time(1060).
time(1065).
time(1070).
time(1075).
time(1080).
time(1085).
time(1090).
time(1095).
time(1100).
time(1105).
time(1110).
time(1115).
time(1120).
time(1125).
time(1130).
time(1135).
time(1140).
time(1145).
time(1150).
time(1155).
time(1160).
time(1165).
time(1170).
time(1175).
time(1180).
time(1185).
time(1190).
time(1195).
time(1200).
time(1205).
time(1210).
time(1215).
time(1220).
time(1225).
time(1230).
time(1235).
time(1240).
time(1245).
time(1250).
time(1255).
time(1260).
time(1265).
time(1270).
time(1275).
time(1280).
time(1285).
time(1290).
time(1295).
time(1300).
time(1305).
time(1310).
time(1315).
time(1320).
time(1325).
time(1330).
time(1335).
time(1340).
time(1345).
time(1350).
time(1355).
time(1360).
time(1365).
time(1370).
time(1375).
time(1380).
time(1385).
time(1390).
time(1395).
time(1400).
time(1405).
time(1410).
time(1415).
time(1420).
time(1425).
time(1430).
time(1435).
time(1440).
time(1445).
time(1450).
time(1455).
time(1460).
time(1465).
time(1470).
time(1475).
time(1480).
time(1485).
time(1490).
time(1495).
time(1500).
time(1505).
time(1510).
time(1515).
time(1520).
time(1525).
time(1530).
time(1535).
time(1540).
time(1545).
time(1550).
time(1555).
time(1560).
time(1565).
time(1570).
time(1575).
time(1580).
time(1585).
time(1590).
time(1595).
time(1600).
time(1605).
time(1610).
time(1615).
time(1620).
time(1625).
time(1630).
time(1635).
time(1640).
time(1645).
time(1650).
time(1655).
time(1660).
time(1665).
time(1670).
time(1675).
time(1680).
time(1685).
time(1690).
time(1695).
time(1700).
time(1705).
time(1710).
time(1715).
time(1720).
time(1725).
time(1730).
time(1735).
time(1740).
time(1745).
time(1750).
time(1755).
time(1760).
time(1765).
time(1770).
time(1775).
time(1780).
time(1785).
time(1790).
time(1795).
time(1800).
time(1805).
time(1810).
time(1815).
time(1820).
time(1825).
time(1830).
time(1835).
time(1840).
time(1845).
time(1850).
time(1855).
time(1860).
time(1865).
time(1870).
time(1875).
time(1880).
time(1885).
time(1890).
time(1895).
time(1900).
time(1905).
time(1910).
time(1915).
time(1920).
time(1925).
time(1930).
time(1935).
time(1940).
time(1945).
time(1950).
time(1955).
time(1960).
time(1965).
time(1970).
time(1975).
time(1980).
time(1985).
time(1990).
time(1995).
time(2000).
time(2005).
time(2010).
time(2015).
time(2020).
time(2025).
time(2030).
time(2035).
time(2040).
time(2045).
time(2050).
time(2055).
time(2060).
time(2065).
time(2070).
time(2075).
time(2080).
time(2085).
time(2090).
time(2095).
time(2100).
time(2105).
time(2110).
time(2115).
time(2120).
time(2125).
time(2130).
time(2135).
time(2140).
time(2145).
time(2150).
time(2155).
time(2160).
time(2165).
time(2170).
time(2175).
time(2180).
time(2185).
time(2190).
time(2195).
time(2200).
time(2205).
time(2210).
time(2215).
time(2220).
time(2225).
time(2230).
time(2235).
time(2240).
time(2245).
time(2250).
time(2255).
time(2260).
time(2265).
time(2270).
time(2275).
time(2280).
time(2285).
time(2290).
time(2295).
time(2300).
time(2305).
time(2310).
time(2315).
time(2320).
time(2325).
time(2330).
time(2335).
time(2340).
time(2345).
time(2350).
time(2355).
time(2360).
time(2365).
time(2370).
time(2375).
time(2380).
time(2385).
time(2390).
time(2395).
time(2400).
time(2405).
time(2410).
time(2415).
time(2420).
time(2425).
time(2430).
time(2435).
time(2440).
time(2445).
time(2450).
time(2455).
time(2460).
time(2465).
time(2470).
time(2475).
time(2480).
time(2485).
time(2490).
time(2495).
time(2500).
time(2505).
time(2510).
time(2515).
time(2520).
time(2525).
time(2530).
time(2535).
time(2540).
time(2545).
time(2550).
time(2555).
time(2560).
time(2565).
time(2570).
time(2575).
time(2580).
time(2585).
time(2590).
time(2595).
time(2600).
time(2605).
time(2610).
time(2615).
time(2620).
time(2625).
time(2630).
time(2635).
time(2640).
time(2645).
time(2650).
time(2655).
time(2660).
time(2665).
time(2670).
time(2675).
time(2680).
time(2685).
time(2690).
time(2695).
time(2700).
time(2705).
time(2710).
time(2715).
time(2720).
time(2725).
time(2730).
time(2735).
time(2740).
time(2745).
time(2750).
time(2755).
time(2760).
time(2765).
time(2770).
time(2775).
time(2780).
time(2785).
time(2790).
time(2795).
time(2800).
time(2805).
time(2810).
time(2815).
time(2820).
time(2825).
time(2830).
time(2835).
time(2840).
time(2845).
time(2850).
time(2855).
time(2860).
time(2865).
time(2870).
time(2875).
time(2880).
time(2885).
time(2890).
time(2895).
time(2900).
time(2905).
time(2910).
time(2915).
time(2920).
time(2925).
time(2930).
time(2935).
time(2940).
time(2945).
time(2950).
time(2955).
time(2960).
time(2965).
time(2970).
time(2975).
time(2980).
time(2985).
time(2990).
time(2995).
time(3000).
time(3005).
time(3010).
capacity("16", 11).
maxTrafficTravelTime("16", 20).
mediumTrafficTravelTime("16", 15).
lightTrafficTravelTime("16", 10).
heavyTrafficThreshold("16", 8, 11).
mediumTrafficThreshold("16", 5, 8).
lightTrafficThreshold("16", 0, 5).
capacity("77[1][1]", 58).
maxTrafficTravelTime("77[1][1]", 630).
heavyTrafficTravelTime("77[1][1]", 115).
mediumTrafficTravelTime("77[1][1]", 60).
lightTrafficTravelTime("77[1][1]", 40).
heavyTrafficThreshold("77[1][1]", 41, 58).
mediumTrafficThreshold("77[1][1]", 24, 41).
lightTrafficThreshold("77[1][1]", 0, 24).
capacity("(53cd|53[0]|53[1][0]|53[1][1][0]|77[1][0])", 10).
maxTrafficTravelTime("(53cd|53[0]|53[1][0]|53[1][1][0]|77[1][0])", 585).
heavyTrafficTravelTime("(53cd|53[0]|53[1][0]|53[1][1][0]|77[1][0])", 15).
mediumTrafficTravelTime("(53cd|53[0]|53[1][0]|53[1][1][0]|77[1][0])", 10).
lightTrafficTravelTime("(53cd|53[0]|53[1][0]|53[1][1][0]|77[1][0])", 5).
heavyTrafficThreshold("(53cd|53[0]|53[1][0]|53[1][1][0]|77[1][0])", 7, 10).
mediumTrafficThreshold("(53cd|53[0]|53[1][0]|53[1][1][0]|77[1][0])", 4, 7).
lightTrafficThreshold("(53cd|53[0]|53[1][0]|53[1][1][0]|77[1][0])", 0, 4).
capacity("1", 2).
maxTrafficTravelTime("1", 2555).
heavyTrafficTravelTime("1", 35).
mediumTrafficTravelTime("1", 35).
lightTrafficTravelTime("1", 35).
heavyTrafficThreshold("1", 2, 2).
mediumTrafficThreshold("1", 1, 2).
lightTrafficThreshold("1", 0, 1).
capacity("117", 16).
maxTrafficTravelTime("117", 985).
heavyTrafficTravelTime("117", 65).
mediumTrafficTravelTime("117", 50).
lightTrafficTravelTime("117", 45).
heavyTrafficThreshold("117", 12, 16).
mediumTrafficThreshold("117", 7, 12).
lightTrafficThreshold("117", 0, 7).
capacity("186", 7).
maxTrafficTravelTime("186", 945).
heavyTrafficTravelTime("186", 15).
mediumTrafficTravelTime("186", 10).
lightTrafficTravelTime("186", 5).
heavyTrafficThreshold("186", 5, 7).
mediumTrafficThreshold("186", 3, 5).
lightTrafficThreshold("186", 0, 3).
capacity("204b[0]", 3).
maxTrafficTravelTime("204b[0]", 2595).
heavyTrafficTravelTime("204b[0]", 5).
mediumTrafficTravelTime("204b[0]", 5).
lightTrafficTravelTime("204b[0]", 5).
heavyTrafficThreshold("204b[0]", 3, 3).
mediumTrafficThreshold("204b[0]", 2, 3).
lightTrafficThreshold("204b[0]", 0, 2).
capacity("[89[0]|20002+89[1][0]|89[1][1]]", 20).
maxTrafficTravelTime("[89[0]|20002+89[1][0]|89[1][1]]", 255).
heavyTrafficTravelTime("[89[0]|20002+89[1][0]|89[1][1]]", 40).
mediumTrafficTravelTime("[89[0]|20002+89[1][0]|89[1][1]]", 20).
lightTrafficTravelTime("[89[0]|20002+89[1][0]|89[1][1]]", 15).
heavyTrafficThreshold("[89[0]|20002+89[1][0]|89[1][1]]", 14, 20).
mediumTrafficThreshold("[89[0]|20002+89[1][0]|89[1][1]]", 8, 14).
lightTrafficThreshold("[89[0]|20002+89[1][0]|89[1][1]]", 0, 8).
capacity("(53cd|53[0]|53[1][0])", 2).
maxTrafficTravelTime("(53cd|53[0]|53[1][0])", 595).
heavyTrafficTravelTime("(53cd|53[0]|53[1][0])", 15).
mediumTrafficTravelTime("(53cd|53[0]|53[1][0])", 10).
lightTrafficTravelTime("(53cd|53[0]|53[1][0])", 5).
heavyTrafficThreshold("(53cd|53[0]|53[1][0])", 2, 2).
mediumTrafficThreshold("(53cd|53[0]|53[1][0])", 1, 2).
lightTrafficThreshold("(53cd|53[0]|53[1][0])", 0, 1).
capacity("[189[0]|189[1][0]+20000|189[1][1]]", 25).
maxTrafficTravelTime("[189[0]|189[1][0]+20000|189[1][1]]", 640).
heavyTrafficTravelTime("[189[0]|189[1][0]+20000|189[1][1]]", 80).
mediumTrafficTravelTime("[189[0]|189[1][0]+20000|189[1][1]]", 55).
lightTrafficTravelTime("[189[0]|189[1][0]+20000|189[1][1]]", 50).
heavyTrafficThreshold("[189[0]|189[1][0]+20000|189[1][1]]", 18, 25).
mediumTrafficThreshold("[189[0]|189[1][0]+20000|189[1][1]]", 10, 18).
lightTrafficThreshold("[189[0]|189[1][0]+20000|189[1][1]]", 0, 10).
capacity("15", 11).
maxTrafficTravelTime("15", 580).
heavyTrafficTravelTime("15", 55).
mediumTrafficTravelTime("15", 45).
lightTrafficTravelTime("15", 40).
heavyTrafficThreshold("15", 8, 11).
mediumTrafficThreshold("15", 5, 8).
lightTrafficThreshold("15", 0, 5).
capacity("103", 34).
maxTrafficTravelTime("103", 275).
heavyTrafficTravelTime("103", 65).
mediumTrafficTravelTime("103", 50).
lightTrafficTravelTime("103", 45).
heavyTrafficThreshold("103", 24, 34).
mediumTrafficThreshold("103", 14, 24).
lightTrafficThreshold("103", 0, 14).
capacity("[17|71]", 48).
maxTrafficTravelTime("[17|71]", 640).
heavyTrafficTravelTime("[17|71]", 80).
mediumTrafficTravelTime("[17|71]", 55).
lightTrafficTravelTime("[17|71]", 50).
heavyTrafficThreshold("[17|71]", 34, 48).
mediumTrafficThreshold("[17|71]", 20, 34).
lightTrafficThreshold("[17|71]", 0, 20).
capacity("153", 49).
maxTrafficTravelTime("153", 75).
lightTrafficTravelTime("153", 65).
heavyTrafficThreshold("153", 35, 49).
mediumTrafficThreshold("153", 20, 35).
lightTrafficThreshold("153", 0, 20).
capacity("37", 16).
maxTrafficTravelTime("37", 25).
mediumTrafficTravelTime("37", 20).
lightTrafficTravelTime("37", 15).
heavyTrafficThreshold("37", 12, 16).
mediumTrafficThreshold("37", 7, 12).
lightTrafficThreshold("37", 0, 7).
capacity("204[1][0]", 2).
maxTrafficTravelTime("204[1][0]", 2625).
heavyTrafficTravelTime("204[1][0]", 35).
mediumTrafficTravelTime("204[1][0]", 35).
lightTrafficTravelTime("204[1][0]", 35).
heavyTrafficThreshold("204[1][0]", 2, 2).
mediumTrafficThreshold("204[1][0]", 1, 2).
lightTrafficThreshold("204[1][0]", 0, 1).
capacity("[87[0]|20001+87[1][0]|87[1][1]]", 4).
maxTrafficTravelTime("[87[0]|20001+87[1][0]|87[1][1]]", 235).
heavyTrafficTravelTime("[87[0]|20001+87[1][0]|87[1][1]]", 10).
mediumTrafficTravelTime("[87[0]|20001+87[1][0]|87[1][1]]", 5).
lightTrafficTravelTime("[87[0]|20001+87[1][0]|87[1][1]]", 5).
heavyTrafficThreshold("[87[0]|20001+87[1][0]|87[1][1]]", 3, 4).
mediumTrafficThreshold("[87[0]|20001+87[1][0]|87[1][1]]", 2, 3).
lightTrafficThreshold("[87[0]|20001+87[1][0]|87[1][1]]", 0, 2).
capacity("[200|60]", 36).
maxTrafficTravelTime("[200|60]", 850).
heavyTrafficTravelTime("[200|60]", 75).
mediumTrafficTravelTime("[200|60]", 40).
lightTrafficTravelTime("[200|60]", 25).
heavyTrafficThreshold("[200|60]", 26, 36).
mediumTrafficThreshold("[200|60]", 15, 26).
lightTrafficThreshold("[200|60]", 0, 15).
capacity("38", 16).
maxTrafficTravelTime("38", 520).
heavyTrafficTravelTime("38", 35).
mediumTrafficTravelTime("38", 20).
lightTrafficTravelTime("38", 15).
heavyTrafficThreshold("38", 12, 16).
mediumTrafficThreshold("38", 7, 12).
lightTrafficThreshold("38", 0, 7).
capacity("[210|43[0]]", 144).
maxTrafficTravelTime("[210|43[0]]", 185).
heavyTrafficTravelTime("[210|43[0]]", 125).
mediumTrafficTravelTime("[210|43[0]]", 80).
lightTrafficTravelTime("[210|43[0]]", 65).
heavyTrafficThreshold("[210|43[0]]", 101, 144).
mediumTrafficThreshold("[210|43[0]]", 58, 101).
lightTrafficThreshold("[210|43[0]]", 0, 58).
capacity("62", 24).
maxTrafficTravelTime("62", 370).
heavyTrafficTravelTime("62", 50).
mediumTrafficTravelTime("62", 25).
lightTrafficTravelTime("62", 20).
heavyTrafficThreshold("62", 17, 24).
mediumTrafficThreshold("62", 10, 17).
lightTrafficThreshold("62", 0, 10).
capacity("10", 11).
maxTrafficTravelTime("10", 570).
heavyTrafficTravelTime("10", 25).
mediumTrafficTravelTime("10", 15).
lightTrafficTravelTime("10", 10).
heavyTrafficThreshold("10", 8, 11).
mediumTrafficThreshold("10", 5, 8).
lightTrafficThreshold("10", 0, 5).
capacity("118", 16).
maxTrafficTravelTime("118", 180).
heavyTrafficTravelTime("118", 35).
mediumTrafficTravelTime("118", 20).
lightTrafficTravelTime("118", 15).
heavyTrafficThreshold("118", 12, 16).
mediumTrafficThreshold("118", 7, 12).
lightTrafficThreshold("118", 0, 7).
capacity("191", 21).
maxTrafficTravelTime("191", 635).
heavyTrafficTravelTime("191", 75).
mediumTrafficTravelTime("191", 55).
lightTrafficTravelTime("191", 45).
heavyTrafficThreshold("191", 15, 21).
mediumTrafficThreshold("191", 9, 15).
lightTrafficThreshold("191", 0, 9).
capacity("[109[0]|109[1][0]+20003|109[1][1]]", 9).
maxTrafficTravelTime("[109[0]|109[1][0]+20003|109[1][1]]", 950).
heavyTrafficTravelTime("[109[0]|109[1][0]+20003|109[1][1]]", 20).
mediumTrafficTravelTime("[109[0]|109[1][0]+20003|109[1][1]]", 10).
lightTrafficTravelTime("[109[0]|109[1][0]+20003|109[1][1]]", 10).
heavyTrafficThreshold("[109[0]|109[1][0]+20003|109[1][1]]", 7, 9).
mediumTrafficThreshold("[109[0]|109[1][0]+20003|109[1][1]]", 4, 7).
lightTrafficThreshold("[109[0]|109[1][0]+20003|109[1][1]]", 0, 4).
capacity("44", 16).
maxTrafficTravelTime("44", 75).
heavyTrafficTravelTime("44", 35).
mediumTrafficTravelTime("44", 20).
lightTrafficTravelTime("44", 15).
heavyTrafficThreshold("44", 12, 16).
mediumTrafficThreshold("44", 7, 12).
lightTrafficThreshold("44", 0, 7).
capacity("113", 30).
maxTrafficTravelTime("113", 980).
heavyTrafficTravelTime("113", 50).
mediumTrafficTravelTime("113", 40).
lightTrafficTravelTime("113", 40).
heavyTrafficThreshold("113", 21, 30).
mediumTrafficThreshold("113", 12, 21).
lightTrafficThreshold("113", 0, 12).
capacity("(77[1][0]|77ab|77bc|77cd|53cd|53[0])", 10).
maxTrafficTravelTime("(77[1][0]|77ab|77bc|77cd|53cd|53[0])", 235).
heavyTrafficTravelTime("(77[1][0]|77ab|77bc|77cd|53cd|53[0])", 15).
mediumTrafficTravelTime("(77[1][0]|77ab|77bc|77cd|53cd|53[0])", 10).
lightTrafficTravelTime("(77[1][0]|77ab|77bc|77cd|53cd|53[0])", 5).
heavyTrafficThreshold("(77[1][0]|77ab|77bc|77cd|53cd|53[0])", 7, 10).
mediumTrafficThreshold("(77[1][0]|77ab|77bc|77cd|53cd|53[0])", 4, 7).
lightTrafficThreshold("(77[1][0]|77ab|77bc|77cd|53cd|53[0])", 0, 4).
capacity("51", 10).
maxTrafficTravelTime("51", 75).
heavyTrafficTravelTime("51", 20).
mediumTrafficTravelTime("51", 10).
lightTrafficTravelTime("51", 10).
heavyTrafficThreshold("51", 7, 10).
mediumTrafficThreshold("51", 4, 7).
lightTrafficThreshold("51", 0, 4).
capacity("35", 14).
maxTrafficTravelTime("35", 470).
heavyTrafficTravelTime("35", 30).
mediumTrafficTravelTime("35", 15).
lightTrafficTravelTime("35", 10).
heavyTrafficThreshold("35", 10, 14).
mediumTrafficThreshold("35", 6, 10).
lightTrafficThreshold("35", 0, 6).
capacity("72[1]", 4).
maxTrafficTravelTime("72[1]", 880).
heavyTrafficTravelTime("72[1]", 35).
mediumTrafficTravelTime("72[1]", 35).
lightTrafficTravelTime("72[1]", 35).
heavyTrafficThreshold("72[1]", 3, 4).
mediumTrafficThreshold("72[1]", 2, 3).
lightTrafficThreshold("72[1]", 0, 2).
capacity("21a", 2).
maxTrafficTravelTime("21a", 235).
heavyTrafficTravelTime("21a", 5).
mediumTrafficTravelTime("21a", 5).
lightTrafficTravelTime("21a", 5).
heavyTrafficThreshold("21a", 2, 2).
mediumTrafficThreshold("21a", 1, 2).
lightTrafficThreshold("21a", 0, 1).
capacity("66", 12).
maxTrafficTravelTime("66", 20).
mediumTrafficTravelTime("66", 15).
lightTrafficTravelTime("66", 10).
heavyTrafficThreshold("66", 9, 12).
mediumTrafficThreshold("66", 5, 9).
lightTrafficThreshold("66", 0, 5).
capacity("161", 72).
maxTrafficTravelTime("161", 920).
heavyTrafficTravelTime("161", 50).
mediumTrafficTravelTime("161", 25).
lightTrafficTravelTime("161", 20).
heavyTrafficThreshold("161", 51, 72).
mediumTrafficThreshold("161", 29, 51).
lightTrafficThreshold("161", 0, 29).
capacity("33", 14).
maxTrafficTravelTime("33", 535).
heavyTrafficTravelTime("33", 30).
mediumTrafficTravelTime("33", 15).
lightTrafficTravelTime("33", 10).
heavyTrafficThreshold("33", 10, 14).
mediumTrafficThreshold("33", 6, 10).
lightTrafficThreshold("33", 0, 6).
capacity("[22|59]", 18).
maxTrafficTravelTime("[22|59]", 590).
heavyTrafficTravelTime("[22|59]", 40).
mediumTrafficTravelTime("[22|59]", 20).
lightTrafficTravelTime("[22|59]", 15).
heavyTrafficThreshold("[22|59]", 13, 18).
mediumTrafficThreshold("[22|59]", 8, 13).
lightTrafficThreshold("[22|59]", 0, 8).
capacity("[3|2]", 12).
maxTrafficTravelTime("[3|2]", 975).
heavyTrafficTravelTime("[3|2]", 45).
mediumTrafficTravelTime("[3|2]", 40).
lightTrafficTravelTime("[3|2]", 35).
heavyTrafficThreshold("[3|2]", 9, 12).
mediumTrafficThreshold("[3|2]", 5, 9).
lightTrafficThreshold("[3|2]", 0, 5).
capacity("57[1]", 3).
maxTrafficTravelTime("57[1]", 285).
heavyTrafficTravelTime("57[1]", 10).
mediumTrafficTravelTime("57[1]", 5).
lightTrafficTravelTime("57[1]", 5).
heavyTrafficThreshold("57[1]", 3, 3).
mediumTrafficThreshold("57[1]", 2, 3).
lightTrafficThreshold("57[1]", 0, 2).
capacity("85", 123).
maxTrafficTravelTime("85", 60).
lightTrafficTravelTime("85", 60).
heavyTrafficThreshold("85", 87, 123).
mediumTrafficThreshold("85", 50, 87).
lightTrafficThreshold("85", 0, 50).
capacity("65", 12).
maxTrafficTravelTime("65", 835).
heavyTrafficTravelTime("65", 25).
mediumTrafficTravelTime("65", 15).
lightTrafficTravelTime("65", 10).
heavyTrafficThreshold("65", 9, 12).
mediumTrafficThreshold("65", 5, 9).
lightTrafficThreshold("65", 0, 5).
capacity("204a[0]", 69).
maxTrafficTravelTime("204a[0]", 2640).
heavyTrafficTravelTime("204a[0]", 80).
mediumTrafficTravelTime("204a[0]", 55).
lightTrafficTravelTime("204a[0]", 50).
heavyTrafficThreshold("204a[0]", 49, 69).
mediumTrafficThreshold("204a[0]", 28, 49).
lightTrafficThreshold("204a[0]", 0, 28).
capacity("84", 16).
maxTrafficTravelTime("84", 610).
heavyTrafficTravelTime("84", 35).
mediumTrafficTravelTime("84", 20).
lightTrafficTravelTime("84", 15).
heavyTrafficThreshold("84", 12, 16).
mediumTrafficThreshold("84", 7, 12).
lightTrafficThreshold("84", 0, 7).
capacity("58[0]", 7).
maxTrafficTravelTime("58[0]", 15).
mediumTrafficTravelTime("58[0]", 10).
lightTrafficTravelTime("58[0]", 5).
heavyTrafficThreshold("58[0]", 5, 7).
mediumTrafficThreshold("58[0]", 3, 5).
lightTrafficThreshold("58[0]", 0, 3).
capacity("201", 84).
maxTrafficTravelTime("201", 1345).
heavyTrafficTravelTime("201", 90).
mediumTrafficTravelTime("201", 60).
lightTrafficTravelTime("201", 50).
heavyTrafficThreshold("201", 59, 84).
mediumTrafficThreshold("201", 34, 59).
lightTrafficThreshold("201", 0, 34).
capacity("91", 5).
maxTrafficTravelTime("91", 920).
heavyTrafficTravelTime("91", 10).
mediumTrafficTravelTime("91", 5).
lightTrafficTravelTime("91", 5).
heavyTrafficThreshold("91", 4, 5).
mediumTrafficThreshold("91", 2, 4).
lightTrafficThreshold("91", 0, 2).
capacity("197", 25).
maxTrafficTravelTime("197", 90).
heavyTrafficTravelTime("197", 50).
mediumTrafficTravelTime("197", 25).
lightTrafficTravelTime("197", 20).
heavyTrafficThreshold("197", 18, 25).
mediumTrafficThreshold("197", 10, 18).
lightTrafficThreshold("197", 0, 10).
capacity("19", 8).
maxTrafficTravelTime("19", 545).
heavyTrafficTravelTime("19", 20).
mediumTrafficTravelTime("19", 10).
lightTrafficTravelTime("19", 10).
heavyTrafficThreshold("19", 6, 8).
mediumTrafficThreshold("19", 4, 6).
lightTrafficThreshold("19", 0, 4).
capacity("(53cd|53[0])", 2).
maxTrafficTravelTime("(53cd|53[0])", 595).
heavyTrafficTravelTime("(53cd|53[0])", 15).
mediumTrafficTravelTime("(53cd|53[0])", 10).
lightTrafficTravelTime("(53cd|53[0])", 5).
heavyTrafficThreshold("(53cd|53[0])", 2, 2).
mediumTrafficThreshold("(53cd|53[0])", 1, 2).
lightTrafficThreshold("(53cd|53[0])", 0, 1).
capacity("124", 6).
maxTrafficTravelTime("124", 2635).
heavyTrafficTravelTime("124", 40).
mediumTrafficTravelTime("124", 35).
lightTrafficTravelTime("124", 35).
heavyTrafficThreshold("124", 5, 6).
mediumTrafficThreshold("124", 3, 5).
lightTrafficThreshold("124", 0, 3).
capacity("79", 18).
maxTrafficTravelTime("79", 605).
heavyTrafficTravelTime("79", 40).
mediumTrafficTravelTime("79", 20).
lightTrafficTravelTime("79", 15).
heavyTrafficThreshold("79", 13, 18).
mediumTrafficThreshold("79", 8, 13).
lightTrafficThreshold("79", 0, 8).
capacity("224[0]", 37).
maxTrafficTravelTime("224[0]", 145).
heavyTrafficTravelTime("224[0]", 75).
mediumTrafficTravelTime("224[0]", 40).
lightTrafficTravelTime("224[0]", 25).
heavyTrafficThreshold("224[0]", 26, 37).
mediumTrafficThreshold("224[0]", 15, 26).
lightTrafficThreshold("224[0]", 0, 15).
capacity("206", 11).
maxTrafficTravelTime("206", 10).
lightTrafficTravelTime("206", 10).
heavyTrafficThreshold("206", 8, 11).
mediumTrafficThreshold("206", 5, 8).
lightTrafficThreshold("206", 0, 5).
capacity("[68|11]", 24).
maxTrafficTravelTime("[68|11]", 630).
heavyTrafficTravelTime("[68|11]", 55).
mediumTrafficTravelTime("[68|11]", 45).
lightTrafficTravelTime("[68|11]", 40).
heavyTrafficThreshold("[68|11]", 17, 24).
mediumTrafficThreshold("[68|11]", 10, 17).
lightTrafficThreshold("[68|11]", 0, 10).
capacity("40", 5).
maxTrafficTravelTime("40", 15).
heavyTrafficTravelTime("40", 10).
mediumTrafficTravelTime("40", 5).
lightTrafficTravelTime("40", 5).
heavyTrafficThreshold("40", 4, 5).
mediumTrafficThreshold("40", 2, 4).
lightTrafficThreshold("40", 0, 2).
capacity("32", 18).
maxTrafficTravelTime("32", 15).
lightTrafficTravelTime("32", 15).
heavyTrafficThreshold("32", 13, 18).
mediumTrafficThreshold("32", 8, 13).
lightTrafficThreshold("32", 0, 8).
capacity("201c", 3).
maxTrafficTravelTime("201c", 1330).
heavyTrafficTravelTime("201c", 35).
mediumTrafficTravelTime("201c", 35).
lightTrafficTravelTime("201c", 35).
heavyTrafficThreshold("201c", 3, 3).
mediumTrafficThreshold("201c", 2, 3).
lightTrafficThreshold("201c", 0, 2).
capacity("42", 4).
maxTrafficTravelTime("42", 405).
heavyTrafficTravelTime("42", 10).
mediumTrafficTravelTime("42", 5).
lightTrafficTravelTime("42", 5).
heavyTrafficThreshold("42", 3, 4).
mediumTrafficThreshold("42", 2, 3).
lightTrafficThreshold("42", 0, 2).
capacity("[211|45]", 20).
maxTrafficTravelTime("[211|45]", 15).
lightTrafficTravelTime("[211|45]", 15).
heavyTrafficThreshold("[211|45]", 14, 20).
mediumTrafficThreshold("[211|45]", 8, 14).
lightTrafficThreshold("[211|45]", 0, 8).
capacity("[13|104]", 7).
maxTrafficTravelTime("[13|104]", 605).
heavyTrafficTravelTime("[13|104]", 45).
mediumTrafficTravelTime("[13|104]", 40).
lightTrafficTravelTime("[13|104]", 35).
heavyTrafficThreshold("[13|104]", 5, 7).
mediumTrafficThreshold("[13|104]", 3, 5).
lightTrafficThreshold("[13|104]", 0, 3).
capacity("43[1]", 30).
maxTrafficTravelTime("43[1]", 175).
heavyTrafficTravelTime("43[1]", 50).
mediumTrafficTravelTime("43[1]", 40).
lightTrafficTravelTime("43[1]", 40).
heavyTrafficThreshold("43[1]", 21, 30).
mediumTrafficThreshold("43[1]", 12, 21).
lightTrafficThreshold("43[1]", 0, 12).
capacity("75", 11).
maxTrafficTravelTime("75", 75).
heavyTrafficTravelTime("75", 25).
mediumTrafficTravelTime("75", 15).
lightTrafficTravelTime("75", 10).
heavyTrafficThreshold("75", 8, 11).
mediumTrafficThreshold("75", 5, 8).
lightTrafficThreshold("75", 0, 5).
capacity("204[1][1]", 162).
maxTrafficTravelTime("204[1][1]", 2625).
heavyTrafficTravelTime("204[1][1]", 105).
mediumTrafficTravelTime("204[1][1]", 55).
lightTrafficTravelTime("204[1][1]", 35).
heavyTrafficThreshold("204[1][1]", 114, 162).
mediumTrafficThreshold("204[1][1]", 65, 114).
lightTrafficThreshold("204[1][1]", 0, 65).
capacity("78[1][1]", 8).
maxTrafficTravelTime("78[1][1]", 600).
heavyTrafficTravelTime("78[1][1]", 20).
mediumTrafficTravelTime("78[1][1]", 10).
lightTrafficTravelTime("78[1][1]", 10).
heavyTrafficThreshold("78[1][1]", 6, 8).
mediumTrafficThreshold("78[1][1]", 4, 6).
lightTrafficThreshold("78[1][1]", 0, 4).
capacity("[116|46]", 34).
maxTrafficTravelTime("[116|46]", 865).
heavyTrafficTravelTime("[116|46]", 65).
mediumTrafficTravelTime("[116|46]", 50).
lightTrafficTravelTime("[116|46]", 45).
heavyTrafficThreshold("[116|46]", 24, 34).
mediumTrafficThreshold("[116|46]", 14, 24).
lightTrafficThreshold("[116|46]", 0, 14).
capacity("188", 10).
maxTrafficTravelTime("188", 270).
heavyTrafficTravelTime("188", 55).
mediumTrafficTravelTime("188", 45).
lightTrafficTravelTime("188", 40).
heavyTrafficThreshold("188", 7, 10).
mediumTrafficThreshold("188", 4, 7).
lightTrafficThreshold("188", 0, 4).
capacity("209", 147).
maxTrafficTravelTime("209", 975).
heavyTrafficTravelTime("209", 100).
mediumTrafficTravelTime("209", 50).
lightTrafficTravelTime("209", 35).
heavyTrafficThreshold("209", 103, 147).
mediumTrafficThreshold("209", 59, 103).
lightTrafficThreshold("209", 0, 59).
capacity("61", 24).
maxTrafficTravelTime("61", 30).
mediumTrafficTravelTime("61", 25).
lightTrafficTravelTime("61", 20).
heavyTrafficThreshold("61", 17, 24).
mediumTrafficThreshold("61", 10, 17).
lightTrafficThreshold("61", 0, 10).
capacity("(77[1][0]|77ab|77bc)", 6).
maxTrafficTravelTime("(77[1][0]|77ab|77bc)", 235).
heavyTrafficTravelTime("(77[1][0]|77ab|77bc)", 15).
mediumTrafficTravelTime("(77[1][0]|77ab|77bc)", 10).
lightTrafficTravelTime("(77[1][0]|77ab|77bc)", 5).
heavyTrafficThreshold("(77[1][0]|77ab|77bc)", 5, 6).
mediumTrafficThreshold("(77[1][0]|77ab|77bc)", 3, 5).
lightTrafficThreshold("(77[1][0]|77ab|77bc)", 0, 3).
capacity("21b", 15).
maxTrafficTravelTime("21b", 245).
heavyTrafficTravelTime("21b", 35).
mediumTrafficTravelTime("21b", 20).
lightTrafficTravelTime("21b", 15).
heavyTrafficThreshold("21b", 11, 15).
mediumTrafficThreshold("21b", 6, 11).
lightTrafficThreshold("21b", 0, 6).
capacity("50", 15).
maxTrafficTravelTime("50", 520).
heavyTrafficTravelTime("50", 30).
mediumTrafficTravelTime("50", 15).
lightTrafficTravelTime("50", 10).
heavyTrafficThreshold("50", 11, 15).
mediumTrafficThreshold("50", 6, 11).
lightTrafficThreshold("50", 0, 6).
capacity("120", 19).
maxTrafficTravelTime("120", 955).
heavyTrafficTravelTime("120", 40).
mediumTrafficTravelTime("120", 20).
lightTrafficTravelTime("120", 15).
heavyTrafficThreshold("120", 14, 19).
mediumTrafficThreshold("120", 8, 14).
lightTrafficThreshold("120", 0, 8).
capacity("39", 5).
maxTrafficTravelTime("39", 420).
heavyTrafficTravelTime("39", 10).
mediumTrafficTravelTime("39", 5).
lightTrafficTravelTime("39", 5).
heavyTrafficThreshold("39", 4, 5).
mediumTrafficThreshold("39", 2, 4).
lightTrafficThreshold("39", 0, 2).
capacity("(77[1][0])", 6).
maxTrafficTravelTime("(77[1][0])", 595).
heavyTrafficTravelTime("(77[1][0])", 15).
mediumTrafficTravelTime("(77[1][0])", 10).
lightTrafficTravelTime("(77[1][0])", 5).
heavyTrafficThreshold("(77[1][0])", 5, 6).
mediumTrafficThreshold("(77[1][0])", 3, 5).
lightTrafficThreshold("(77[1][0])", 0, 3).
capacity("54", 74).
maxTrafficTravelTime("54", 2615).
heavyTrafficTravelTime("54", 75).
mediumTrafficTravelTime("54", 40).
lightTrafficTravelTime("54", 25).
heavyTrafficThreshold("54", 52, 74).
mediumTrafficThreshold("54", 30, 52).
lightTrafficThreshold("54", 0, 30).
capacity("[202|34]", 84).
maxTrafficTravelTime("[202|34]", 990).
heavyTrafficTravelTime("[202|34]", 85).
mediumTrafficTravelTime("[202|34]", 60).
lightTrafficTravelTime("[202|34]", 50).
heavyTrafficThreshold("[202|34]", 59, 84).
mediumTrafficThreshold("[202|34]", 34, 59).
lightTrafficThreshold("[202|34]", 0, 34).
capacity("171", 21).
maxTrafficTravelTime("171", 285).
heavyTrafficTravelTime("171", 75).
mediumTrafficTravelTime("171", 55).
lightTrafficTravelTime("171", 45).
heavyTrafficThreshold("171", 15, 21).
mediumTrafficThreshold("171", 9, 15).
lightTrafficThreshold("171", 0, 9).
capacity("74", 31).
maxTrafficTravelTime("74", 895).
heavyTrafficTravelTime("74", 95).
mediumTrafficTravelTime("74", 65).
lightTrafficTravelTime("74", 55).
heavyTrafficThreshold("74", 22, 31).
mediumTrafficThreshold("74", 13, 22).
lightTrafficThreshold("74", 0, 13).
capacity("72[0]", 63).
maxTrafficTravelTime("72[0]", 885).
heavyTrafficTravelTime("72[0]", 75).
mediumTrafficTravelTime("72[0]", 55).
lightTrafficTravelTime("72[0]", 45).
heavyTrafficThreshold("72[0]", 45, 63).
mediumTrafficThreshold("72[0]", 26, 45).
lightTrafficThreshold("72[0]", 0, 26).
capacity("m90", 2).
maxTrafficTravelTime("m90", 245).
heavyTrafficTravelTime("m90", 10).
mediumTrafficTravelTime("m90", 5).
lightTrafficTravelTime("m90", 5).
heavyTrafficThreshold("m90", 2, 2).
mediumTrafficThreshold("m90", 1, 2).
lightTrafficThreshold("m90", 0, 1).
capacity("134", 1).
maxTrafficTravelTime("134", 830).
heavyTrafficTravelTime("134", 5).
mediumTrafficTravelTime("134", 5).
lightTrafficTravelTime("134", 5).
heavyTrafficThreshold("134", 1, 1).
mediumTrafficThreshold("134", 1, 1).
lightTrafficThreshold("134", 0, 1).
capacity("159", 28).
maxTrafficTravelTime("159", 405).
heavyTrafficTravelTime("159", 55).
mediumTrafficTravelTime("159", 30).
lightTrafficTravelTime("159", 20).
heavyTrafficThreshold("159", 20, 28).
mediumTrafficThreshold("159", 12, 20).
lightTrafficThreshold("159", 0, 12).
capacity("131", 40).
maxTrafficTravelTime("131", 75).
mediumTrafficTravelTime("131", 40).
lightTrafficTravelTime("131", 30).
heavyTrafficThreshold("131", 28, 40).
mediumTrafficThreshold("131", 16, 28).
lightTrafficThreshold("131", 0, 16).
capacity("24", 17).
maxTrafficTravelTime("24", 585).
heavyTrafficTravelTime("24", 35).
mediumTrafficTravelTime("24", 20).
lightTrafficTravelTime("24", 15).
heavyTrafficThreshold("24", 12, 17).
mediumTrafficThreshold("24", 7, 12).
lightTrafficThreshold("24", 0, 7).
capacity("194", 22).
maxTrafficTravelTime("194", 915).
heavyTrafficTravelTime("194", 45).
mediumTrafficTravelTime("194", 25).
lightTrafficTravelTime("194", 15).
heavyTrafficThreshold("194", 16, 22).
mediumTrafficThreshold("194", 9, 16).
lightTrafficThreshold("194", 0, 9).
capacity("36", 14).
maxTrafficTravelTime("36", 20).
mediumTrafficTravelTime("36", 15).
lightTrafficTravelTime("36", 10).
heavyTrafficThreshold("36", 10, 14).
mediumTrafficThreshold("36", 6, 10).
lightTrafficThreshold("36", 0, 6).
capacity("122", 78).
maxTrafficTravelTime("122", 1735).
heavyTrafficTravelTime("122", 55).
mediumTrafficTravelTime("122", 30).
lightTrafficTravelTime("122", 20).
heavyTrafficThreshold("122", 55, 78).
mediumTrafficThreshold("122", 32, 55).
lightTrafficThreshold("122", 0, 32).
capacity("86", 120).
maxTrafficTravelTime("86", 620).
heavyTrafficTravelTime("86", 80).
mediumTrafficTravelTime("86", 40).
lightTrafficTravelTime("86", 30).
heavyTrafficThreshold("86", 84, 120).
mediumTrafficThreshold("86", 48, 84).
lightTrafficThreshold("86", 0, 48).
capacity("[80|127]", 17).
maxTrafficTravelTime("[80|127]", 605).
heavyTrafficTravelTime("[80|127]", 35).
mediumTrafficTravelTime("[80|127]", 20).
lightTrafficTravelTime("[80|127]", 15).
heavyTrafficThreshold("[80|127]", 12, 17).
mediumTrafficThreshold("[80|127]", 7, 12).
lightTrafficThreshold("[80|127]", 0, 7).
capacity("1b", 14).
maxTrafficTravelTime("1b", 2555).
heavyTrafficTravelTime("1b", 45).
mediumTrafficTravelTime("1b", 40).
lightTrafficTravelTime("1b", 35).
heavyTrafficThreshold("1b", 10, 14).
mediumTrafficThreshold("1b", 6, 10).
lightTrafficThreshold("1b", 0, 6).
capacity("[181|18]", 22).
maxTrafficTravelTime("[181|18]", 325).
heavyTrafficTravelTime("[181|18]", 55).
mediumTrafficTravelTime("[181|18]", 45).
lightTrafficTravelTime("[181|18]", 40).
heavyTrafficThreshold("[181|18]", 16, 22).
mediumTrafficThreshold("[181|18]", 9, 16).
lightTrafficThreshold("[181|18]", 0, 9).
capacity("224[1]", 16).
maxTrafficTravelTime("224[1]", 180).
heavyTrafficTravelTime("224[1]", 35).
mediumTrafficTravelTime("224[1]", 20).
lightTrafficTravelTime("224[1]", 15).
heavyTrafficThreshold("224[1]", 12, 16).
mediumTrafficThreshold("224[1]", 7, 12).
lightTrafficThreshold("224[1]", 0, 7).
capacity("41", 4).
maxTrafficTravelTime("41", 15).
heavyTrafficTravelTime("41", 10).
mediumTrafficTravelTime("41", 5).
lightTrafficTravelTime("41", 5).
heavyTrafficThreshold("41", 3, 4).
mediumTrafficThreshold("41", 2, 3).
lightTrafficThreshold("41", 0, 2).
capacity("57[0]", 22).
maxTrafficTravelTime("57[0]", 285).
heavyTrafficTravelTime("57[0]", 45).
mediumTrafficTravelTime("57[0]", 25).
lightTrafficTravelTime("57[0]", 15).
heavyTrafficThreshold("57[0]", 16, 22).
mediumTrafficThreshold("57[0]", 9, 16).
lightTrafficThreshold("57[0]", 0, 9).
capacity("180", 25).
maxTrafficTravelTime("180", 620).
heavyTrafficTravelTime("180", 50).
mediumTrafficTravelTime("180", 25).
lightTrafficTravelTime("180", 20).
heavyTrafficThreshold("180", 18, 25).
mediumTrafficThreshold("180", 10, 18).
lightTrafficThreshold("180", 0, 10).
capacity("14", 9).
maxTrafficTravelTime("14", 560).
heavyTrafficTravelTime("14", 20).
mediumTrafficTravelTime("14", 10).
lightTrafficTravelTime("14", 10).
heavyTrafficThreshold("14", 7, 9).
mediumTrafficThreshold("14", 4, 7).
lightTrafficThreshold("14", 0, 4).
capacity("58[1]", 22).
maxTrafficTravelTime("58[1]", 25).
lightTrafficTravelTime("58[1]", 15).
heavyTrafficThreshold("58[1]", 16, 22).
mediumTrafficThreshold("58[1]", 9, 16).
lightTrafficThreshold("58[1]", 0, 9).
capacity("160", 28).
maxTrafficTravelTime("160", 30).
lightTrafficTravelTime("160", 20).
heavyTrafficThreshold("160", 20, 28).
mediumTrafficThreshold("160", 12, 20).
lightTrafficThreshold("160", 0, 12).
capacity("69", 34).
maxTrafficTravelTime("69", 940).
heavyTrafficTravelTime("69", 65).
mediumTrafficTravelTime("69", 50).
lightTrafficTravelTime("69", 45).
heavyTrafficThreshold("69", 24, 34).
mediumTrafficThreshold("69", 14, 24).
lightTrafficThreshold("69", 0, 14).
capacity("67", 26).
maxTrafficTravelTime("67", 600).
heavyTrafficTravelTime("67", 30).
mediumTrafficTravelTime("67", 15).
lightTrafficTravelTime("67", 10).
heavyTrafficThreshold("67", 19, 26).
mediumTrafficThreshold("67", 11, 19).
lightTrafficThreshold("67", 0, 11).
capacity("119", 19).
maxTrafficTravelTime("119", 15).
lightTrafficTravelTime("119", 15).
heavyTrafficThreshold("119", 14, 19).
mediumTrafficThreshold("119", 8, 14).
lightTrafficThreshold("119", 0, 8).
origin("Pepoli_11_2093", "201").
enter("Pepoli_11_2093", "201", 0).
exit("Pepoli_11_2093", "201", 135).
enter("Pepoli_11_2093", "201c", 135).
exit("Pepoli_11_2093", "201c", 170).
enter("Pepoli_11_2093", "204a[0]", 170).
exit("Pepoli_11_2093", "204a[0]", 290).
enter("Pepoli_11_2093", "124", 290).
exit("Pepoli_11_2093", "124", 335).
origin("Pepoli_12_1689", "[210|43[0]]").
enter("Pepoli_12_1689", "[210|43[0]]", 0).
exit("Pepoli_12_1689", "[210|43[0]]", 120).
enter("Pepoli_12_1689", "118", 120).
exit("Pepoli_12_1689", "118", 185).
enter("Pepoli_12_1689", "65", 185).
exit("Pepoli_12_1689", "65", 230).
enter("Pepoli_12_1689", "57[0]", 230).
exit("Pepoli_12_1689", "57[0]", 295).
enter("Pepoli_12_1689", "57[1]", 295).
exit("Pepoli_12_1689", "57[1]", 315).
enter("Pepoli_12_1689", "62", 315).
exit("Pepoli_12_1689", "62", 420).
enter("Pepoli_12_1689", "159", 420).
exit("Pepoli_12_1689", "159", 475).
enter("Pepoli_12_1689", "42", 475).
exit("Pepoli_12_1689", "42", 490).
enter("Pepoli_12_1689", "39", 490).
exit("Pepoli_12_1689", "39", 515).
enter("Pepoli_12_1689", "35", 515).
exit("Pepoli_12_1689", "35", 570).
enter("Pepoli_12_1689", "38", 570).
exit("Pepoli_12_1689", "38", 610).
enter("Pepoli_12_1689", "33", 610).
exit("Pepoli_12_1689", "33", 655).
enter("Pepoli_12_1689", "10", 655).
exit("Pepoli_12_1689", "10", 675).
enter("Pepoli_12_1689", "[13|104]", 675).
exit("Pepoli_12_1689", "[13|104]", 750).
enter("Pepoli_12_1689", "24", 750).
exit("Pepoli_12_1689", "24", 765).
enter("Pepoli_12_1689", "[22|59]", 765).
exit("Pepoli_12_1689", "[22|59]", 785).
enter("Pepoli_12_1689", "(53cd|53[0]|53[1][0])", 785).
exit("Pepoli_12_1689", "(53cd|53[0]|53[1][0])", 795).
enter("Pepoli_12_1689", "79", 795).
exit("Pepoli_12_1689", "79", 815).
enter("Pepoli_12_1689", "[68|11]", 815).
exit("Pepoli_12_1689", "[68|11]", 855).
enter("Pepoli_12_1689", "84", 855).
exit("Pepoli_12_1689", "84", 870).
enter("Pepoli_12_1689", "180", 870).
exit("Pepoli_12_1689", "180", 1065).
origin("Pepoli_11_1408", "201").
enter("Pepoli_11_1408", "201", 0).
exit("Pepoli_11_1408", "201", 135).
enter("Pepoli_11_1408", "201c", 135).
exit("Pepoli_11_1408", "201c", 170).
enter("Pepoli_11_1408", "204a[0]", 170).
exit("Pepoli_11_1408", "204a[0]", 290).
enter("Pepoli_11_1408", "124", 290).
exit("Pepoli_11_1408", "124", 335).
origin("XXI_Aprile_94_630", "161").
enter("XXI_Aprile_94_630", "161", 0).
exit("XXI_Aprile_94_630", "161", 50).
enter("XXI_Aprile_94_630", "122", 50).
exit("XXI_Aprile_94_630", "122", 150).
enter("XXI_Aprile_94_630", "1b", 150).
exit("XXI_Aprile_94_630", "1b", 210).
enter("XXI_Aprile_94_630", "1", 210).
exit("XXI_Aprile_94_630", "1", 245).
enter("XXI_Aprile_94_630", "204a[0]", 245).
exit("XXI_Aprile_94_630", "204a[0]", 365).
enter("XXI_Aprile_94_630", "204b[0]", 365).
exit("XXI_Aprile_94_630", "204b[0]", 370).
enter("XXI_Aprile_94_630", "54", 370).
exit("XXI_Aprile_94_630", "54", 410).
origin("XXI_Aprile_102_851", "201").
enter("XXI_Aprile_102_851", "201", 0).
exit("XXI_Aprile_102_851", "201", 610).
enter("XXI_Aprile_102_851", "201c", 610).
exit("XXI_Aprile_102_851", "201c", 830).
enter("XXI_Aprile_102_851", "204a[0]", 830).
exit("XXI_Aprile_102_851", "204a[0]", 1365).
enter("XXI_Aprile_102_851", "204b[0]", 1365).
exit("XXI_Aprile_102_851", "204b[0]", 1390).
enter("XXI_Aprile_102_851", "204[1][0]", 1390).
exit("XXI_Aprile_102_851", "204[1][0]", 1435).
enter("XXI_Aprile_102_851", "204[1][1]", 1435).
exit("XXI_Aprile_102_851", "204[1][1]", 2850).
origin("Pepoli_11_1894", "43[1]").
enter("Pepoli_11_1894", "43[1]", 0).
exit("Pepoli_11_1894", "43[1]", 70).
enter("Pepoli_11_1894", "201", 70).
exit("Pepoli_11_1894", "201", 205).
enter("Pepoli_11_1894", "201c", 205).
exit("Pepoli_11_1894", "201c", 240).
enter("Pepoli_11_1894", "204a[0]", 240).
exit("Pepoli_11_1894", "204a[0]", 360).
enter("Pepoli_11_1894", "124", 360).
exit("Pepoli_11_1894", "124", 405).
origin("Pepoli_12_1663", "[210|43[0]]").
enter("Pepoli_12_1663", "[210|43[0]]", 0).
exit("Pepoli_12_1663", "[210|43[0]]", 125).
enter("Pepoli_12_1663", "118", 125).
exit("Pepoli_12_1663", "118", 185).
enter("Pepoli_12_1663", "65", 185).
exit("Pepoli_12_1663", "65", 255).
enter("Pepoli_12_1663", "57[0]", 255).
exit("Pepoli_12_1663", "57[0]", 305).
enter("Pepoli_12_1663", "57[1]", 305).
exit("Pepoli_12_1663", "57[1]", 315).
enter("Pepoli_12_1663", "62", 315).
exit("Pepoli_12_1663", "62", 350).
enter("Pepoli_12_1663", "159", 350).
exit("Pepoli_12_1663", "159", 385).
enter("Pepoli_12_1663", "42", 385).
exit("Pepoli_12_1663", "42", 425).
enter("Pepoli_12_1663", "39", 425).
exit("Pepoli_12_1663", "39", 465).
enter("Pepoli_12_1663", "35", 465).
exit("Pepoli_12_1663", "35", 515).
enter("Pepoli_12_1663", "38", 515).
exit("Pepoli_12_1663", "38", 575).
enter("Pepoli_12_1663", "15", 575).
exit("Pepoli_12_1663", "15", 635).
enter("Pepoli_12_1663", "24", 635).
exit("Pepoli_12_1663", "24", 655).
enter("Pepoli_12_1663", "[22|59]", 655).
exit("Pepoli_12_1663", "[22|59]", 675).
enter("Pepoli_12_1663", "(53cd|53[0]|53[1][0])", 675).
exit("Pepoli_12_1663", "(53cd|53[0]|53[1][0])", 715).
enter("Pepoli_12_1663", "79", 715).
exit("Pepoli_12_1663", "79", 750).
enter("Pepoli_12_1663", "[68|11]", 750).
exit("Pepoli_12_1663", "[68|11]", 790).
enter("Pepoli_12_1663", "84", 790).
exit("Pepoli_12_1663", "84", 820).
enter("Pepoli_12_1663", "180", 820).
exit("Pepoli_12_1663", "180", 875).
origin("Pepoli_11_1929", "43[1]").
enter("Pepoli_11_1929", "43[1]", 0).
exit("Pepoli_11_1929", "43[1]", 70).
enter("Pepoli_11_1929", "201", 70).
exit("Pepoli_11_1929", "201", 205).
enter("Pepoli_11_1929", "201c", 205).
exit("Pepoli_11_1929", "201c", 240).
enter("Pepoli_11_1929", "204a[0]", 240).
exit("Pepoli_11_1929", "204a[0]", 360).
enter("Pepoli_11_1929", "124", 360).
exit("Pepoli_11_1929", "124", 405).
origin("Pepoli_12_1252", "159").
enter("Pepoli_12_1252", "159", 0).
exit("Pepoli_12_1252", "159", 105).
enter("Pepoli_12_1252", "42", 105).
exit("Pepoli_12_1252", "42", 125).
enter("Pepoli_12_1252", "39", 125).
exit("Pepoli_12_1252", "39", 145).
enter("Pepoli_12_1252", "35", 145).
exit("Pepoli_12_1252", "35", 200).
enter("Pepoli_12_1252", "38", 200).
exit("Pepoli_12_1252", "38", 260).
enter("Pepoli_12_1252", "50", 260).
exit("Pepoli_12_1252", "50", 290).
enter("Pepoli_12_1252", "19", 290).
exit("Pepoli_12_1252", "19", 325).
enter("Pepoli_12_1252", "[22|59]", 325).
exit("Pepoli_12_1252", "[22|59]", 365).
enter("Pepoli_12_1252", "(53cd|53[0]|53[1][0])", 365).
exit("Pepoli_12_1252", "(53cd|53[0]|53[1][0])", 385).
enter("Pepoli_12_1252", "79", 385).
exit("Pepoli_12_1252", "79", 405).
enter("Pepoli_12_1252", "[68|11]", 405).
exit("Pepoli_12_1252", "[68|11]", 450).
enter("Pepoli_12_1252", "84", 450).
exit("Pepoli_12_1252", "84", 470).
enter("Pepoli_12_1252", "180", 470).
exit("Pepoli_12_1252", "180", 490).
origin("Vittorio_Veneto_2_601", "224[1]").
enter("Vittorio_Veneto_2_601", "224[1]", 0).
exit("Vittorio_Veneto_2_601", "224[1]", 60).
enter("Vittorio_Veneto_2_601", "[181|18]", 60).
exit("Vittorio_Veneto_2_601", "[181|18]", 135).
enter("Vittorio_Veneto_2_601", "[17|71]", 135).
exit("Vittorio_Veneto_2_601", "[17|71]", 190).
enter("Vittorio_Veneto_2_601", "67", 190).
exit("Vittorio_Veneto_2_601", "67", 205).
enter("Vittorio_Veneto_2_601", "[80|127]", 205).
exit("Vittorio_Veneto_2_601", "[80|127]", 240).
enter("Vittorio_Veneto_2_601", "(77[1][0])", 240).
exit("Vittorio_Veneto_2_601", "(77[1][0])", 260).
enter("Vittorio_Veneto_2_601", "77[1][1]", 260).
exit("Vittorio_Veneto_2_601", "77[1][1]", 300).
origin("Pepoli_11_1567", "204a[0]").
enter("Pepoli_11_1567", "204a[0]", 0).
exit("Pepoli_11_1567", "204a[0]", 655).
enter("Pepoli_11_1567", "124", 655).
exit("Pepoli_11_1567", "124", 1135).
origin("XXI_Aprile_1_999", "[22|59]").
enter("XXI_Aprile_1_999", "[22|59]", 0).
exit("XXI_Aprile_1_999", "[22|59]", 15).
enter("XXI_Aprile_1_999", "(53cd|53[0]|53[1][0])", 15).
exit("XXI_Aprile_1_999", "(53cd|53[0]|53[1][0])", 30).
enter("XXI_Aprile_1_999", "79", 30).
exit("XXI_Aprile_1_999", "79", 50).
enter("XXI_Aprile_1_999", "[68|11]", 50).
exit("XXI_Aprile_1_999", "[68|11]", 100).
enter("XXI_Aprile_1_999", "86", 100).
exit("XXI_Aprile_1_999", "86", 130).
origin("XXI_Aprile_7_746", "[116|46]").
enter("XXI_Aprile_7_746", "[116|46]", 0).
exit("XXI_Aprile_7_746", "[116|46]", 65).
enter("XXI_Aprile_7_746", "113", 65).
exit("XXI_Aprile_7_746", "113", 135).
enter("XXI_Aprile_7_746", "209", 135).
exit("XXI_Aprile_7_746", "209", 185).
origin("Pepoli_11_1788", "204a[0]").
enter("Pepoli_11_1788", "204a[0]", 0).
exit("Pepoli_11_1788", "204a[0]", 120).
enter("Pepoli_11_1788", "124", 120).
exit("Pepoli_11_1788", "124", 165).
origin("XXI_Aprile_7_770", "186").
enter("XXI_Aprile_7_770", "186", 0).
exit("XXI_Aprile_7_770", "186", 30).
enter("XXI_Aprile_7_770", "[109[0]|109[1][0]+20003|109[1][1]]", 30).
exit("XXI_Aprile_7_770", "[109[0]|109[1][0]+20003|109[1][1]]", 65).
enter("XXI_Aprile_7_770", "[116|46]", 65).
exit("XXI_Aprile_7_770", "[116|46]", 130).
enter("XXI_Aprile_7_770", "113", 130).
exit("XXI_Aprile_7_770", "113", 180).
enter("XXI_Aprile_7_770", "209", 180).
exit("XXI_Aprile_7_770", "209", 280).
origin("Vittorio_Veneto_2_645", "224[0]").
enter("Vittorio_Veneto_2_645", "224[0]", 0).
exit("Vittorio_Veneto_2_645", "224[0]", 140).
enter("Vittorio_Veneto_2_645", "224[1]", 140).
exit("Vittorio_Veneto_2_645", "224[1]", 200).
enter("Vittorio_Veneto_2_645", "[181|18]", 200).
exit("Vittorio_Veneto_2_645", "[181|18]", 275).
enter("Vittorio_Veneto_2_645", "[17|71]", 275).
exit("Vittorio_Veneto_2_645", "[17|71]", 330).
enter("Vittorio_Veneto_2_645", "67", 330).
exit("Vittorio_Veneto_2_645", "67", 345).
enter("Vittorio_Veneto_2_645", "[80|127]", 345).
exit("Vittorio_Veneto_2_645", "[80|127]", 380).
enter("Vittorio_Veneto_2_645", "(77[1][0])", 380).
exit("Vittorio_Veneto_2_645", "(77[1][0])", 400).
enter("Vittorio_Veneto_2_645", "77[1][1]", 400).
exit("Vittorio_Veneto_2_645", "77[1][1]", 440).
origin("Pepoli_12_1506", "[210|43[0]]").
enter("Pepoli_12_1506", "[210|43[0]]", 0).
exit("Pepoli_12_1506", "[210|43[0]]", 80).
enter("Pepoli_12_1506", "118", 80).
exit("Pepoli_12_1506", "118", 300).
enter("Pepoli_12_1506", "65", 300).
exit("Pepoli_12_1506", "65", 315).
enter("Pepoli_12_1506", "57[0]", 315).
exit("Pepoli_12_1506", "57[0]", 340).
enter("Pepoli_12_1506", "57[1]", 340).
exit("Pepoli_12_1506", "57[1]", 345).
enter("Pepoli_12_1506", "62", 345).
exit("Pepoli_12_1506", "62", 405).
enter("Pepoli_12_1506", "159", 405).
exit("Pepoli_12_1506", "159", 445).
enter("Pepoli_12_1506", "42", 445).
exit("Pepoli_12_1506", "42", 475).
enter("Pepoli_12_1506", "39", 475).
exit("Pepoli_12_1506", "39", 530).
enter("Pepoli_12_1506", "35", 530).
exit("Pepoli_12_1506", "35", 575).
enter("Pepoli_12_1506", "38", 575).
exit("Pepoli_12_1506", "38", 645).
enter("Pepoli_12_1506", "50", 645).
exit("Pepoli_12_1506", "50", 665).
enter("Pepoli_12_1506", "19", 665).
exit("Pepoli_12_1506", "19", 700).
enter("Pepoli_12_1506", "[22|59]", 700).
exit("Pepoli_12_1506", "[22|59]", 720).
enter("Pepoli_12_1506", "(53cd|53[0]|53[1][0])", 720).
exit("Pepoli_12_1506", "(53cd|53[0]|53[1][0])", 740).
enter("Pepoli_12_1506", "79", 740).
exit("Pepoli_12_1506", "79", 810).
enter("Pepoli_12_1506", "[68|11]", 810).
exit("Pepoli_12_1506", "[68|11]", 910).
enter("Pepoli_12_1506", "84", 910).
exit("Pepoli_12_1506", "84", 930).
enter("Pepoli_12_1506", "180", 930).
exit("Pepoli_12_1506", "180", 1070).
origin("Vittorio_Veneto_1_584", "[181|18]").
enter("Vittorio_Veneto_1_584", "[181|18]", 0).
exit("Vittorio_Veneto_1_584", "[181|18]", 75).
enter("Vittorio_Veneto_1_584", "[17|71]", 75).
exit("Vittorio_Veneto_1_584", "[17|71]", 130).
enter("Vittorio_Veneto_1_584", "86", 130).
exit("Vittorio_Veneto_1_584", "86", 160).
origin("Pepoli_3_1596", "[210|43[0]]").
enter("Pepoli_3_1596", "[210|43[0]]", 0).
exit("Pepoli_3_1596", "[210|43[0]]", 80).
enter("Pepoli_3_1596", "118", 80).
exit("Pepoli_3_1596", "118", 140).
enter("Pepoli_3_1596", "65", 140).
exit("Pepoli_3_1596", "65", 185).
enter("Pepoli_3_1596", "57[0]", 185).
exit("Pepoli_3_1596", "57[0]", 270).
enter("Pepoli_3_1596", "57[1]", 270).
exit("Pepoli_3_1596", "57[1]", 285).
enter("Pepoli_3_1596", "62", 285).
exit("Pepoli_3_1596", "62", 335).
enter("Pepoli_3_1596", "159", 335).
exit("Pepoli_3_1596", "159", 440).
enter("Pepoli_3_1596", "42", 440).
exit("Pepoli_3_1596", "42", 460).
enter("Pepoli_3_1596", "39", 460).
exit("Pepoli_3_1596", "39", 480).
enter("Pepoli_3_1596", "35", 480).
exit("Pepoli_3_1596", "35", 535).
enter("Pepoli_3_1596", "38", 535).
exit("Pepoli_3_1596", "38", 595).
enter("Pepoli_3_1596", "15", 595).
exit("Pepoli_3_1596", "15", 670).
enter("Pepoli_3_1596", "14", 670).
exit("Pepoli_3_1596", "14", 710).
origin("XXI_Aprile_9_857", "74").
enter("XXI_Aprile_9_857", "74", 0).
exit("XXI_Aprile_9_857", "74", 95).
enter("XXI_Aprile_9_857", "72[1]", 95).
exit("XXI_Aprile_9_857", "72[1]", 135).
enter("XXI_Aprile_9_857", "69", 135).
exit("XXI_Aprile_9_857", "69", 230).
enter("XXI_Aprile_9_857", "161", 230).
exit("XXI_Aprile_9_857", "161", 280).
enter("XXI_Aprile_9_857", "122", 280).
exit("XXI_Aprile_9_857", "122", 335).
enter("XXI_Aprile_9_857", "1b", 335).
exit("XXI_Aprile_9_857", "1b", 395).
enter("XXI_Aprile_9_857", "1", 395).
exit("XXI_Aprile_9_857", "1", 430).
enter("XXI_Aprile_9_857", "204a[0]", 430).
exit("XXI_Aprile_9_857", "204a[0]", 550).
enter("XXI_Aprile_9_857", "204b[0]", 550).
exit("XXI_Aprile_9_857", "204b[0]", 555).
enter("XXI_Aprile_9_857", "54", 555).
exit("XXI_Aprile_9_857", "54", 580).
origin("Togliatti_10_596", "72[0]").
enter("Togliatti_10_596", "72[0]", 0).
exit("Togliatti_10_596", "72[0]", 55).
enter("Togliatti_10_596", "72[1]", 55).
exit("Togliatti_10_596", "72[1]", 95).
enter("Togliatti_10_596", "69", 95).
exit("Togliatti_10_596", "69", 190).
enter("Togliatti_10_596", "161", 190).
exit("Togliatti_10_596", "161", 240).
enter("Togliatti_10_596", "122", 240).
exit("Togliatti_10_596", "122", 295).
enter("Togliatti_10_596", "1b", 295).
exit("Togliatti_10_596", "1b", 355).
enter("Togliatti_10_596", "1", 355).
exit("Togliatti_10_596", "1", 390).
enter("Togliatti_10_596", "204a[0]", 390).
exit("Togliatti_10_596", "204a[0]", 510).
enter("Togliatti_10_596", "204b[0]", 510).
exit("Togliatti_10_596", "204b[0]", 515).
enter("Togliatti_10_596", "204[1][0]", 515).
exit("Togliatti_10_596", "204[1][0]", 550).
enter("Togliatti_10_596", "204[1][1]", 550).
exit("Togliatti_10_596", "204[1][1]", 585).
origin("Togliatti_10_673", "85").
enter("Togliatti_10_673", "85", 0).
exit("Togliatti_10_673", "85", 60).
enter("Togliatti_10_673", "72[0]", 60).
exit("Togliatti_10_673", "72[0]", 115).
enter("Togliatti_10_673", "72[1]", 115).
exit("Togliatti_10_673", "72[1]", 330).
enter("Togliatti_10_673", "69", 330).
exit("Togliatti_10_673", "69", 460).
enter("Togliatti_10_673", "161", 460).
exit("Togliatti_10_673", "161", 510).
enter("Togliatti_10_673", "194", 510).
exit("Togliatti_10_673", "194", 555).
enter("Togliatti_10_673", "91", 555).
exit("Togliatti_10_673", "91", 625).
enter("Togliatti_10_673", "186", 625).
exit("Togliatti_10_673", "186", 670).
enter("Togliatti_10_673", "[109[0]|109[1][0]+20003|109[1][1]]", 670).
exit("Togliatti_10_673", "[109[0]|109[1][0]+20003|109[1][1]]", 680).
enter("Togliatti_10_673", "[116|46]", 680).
exit("Togliatti_10_673", "[116|46]", 740).
enter("Togliatti_10_673", "201", 740).
exit("Togliatti_10_673", "201", 1120).
enter("Togliatti_10_673", "201c", 1120).
exit("Togliatti_10_673", "201c", 1395).
enter("Togliatti_10_673", "204a[0]", 1395).
exit("Togliatti_10_673", "204a[0]", 1540).
enter("Togliatti_10_673", "204b[0]", 1540).
exit("Togliatti_10_673", "204b[0]", 1580).
enter("Togliatti_10_673", "204[1][0]", 1580).
exit("Togliatti_10_673", "204[1][0]", 1640).
enter("Togliatti_10_673", "204[1][1]", 1640).
exit("Togliatti_10_673", "204[1][1]", 2385).
origin("Pepoli_11_1970", "204a[0]").
enter("Pepoli_11_1970", "204a[0]", 0).
exit("Pepoli_11_1970", "204a[0]", 120).
enter("Pepoli_11_1970", "124", 120).
exit("Pepoli_11_1970", "124", 165).
origin("Pepoli_2_1127", "35").
enter("Pepoli_2_1127", "35", 0).
exit("Pepoli_2_1127", "35", 55).
enter("Pepoli_2_1127", "38", 55).
exit("Pepoli_2_1127", "38", 115).
enter("Pepoli_2_1127", "50", 115).
exit("Pepoli_2_1127", "50", 175).
enter("Pepoli_2_1127", "19", 175).
exit("Pepoli_2_1127", "19", 210).
enter("Pepoli_2_1127", "[22|59]", 210).
exit("Pepoli_2_1127", "[22|59]", 280).
enter("Pepoli_2_1127", "(53cd|53[0]|53[1][0]|53[1][1][0]|77[1][0])", 280).
exit("Pepoli_2_1127", "(53cd|53[0]|53[1][0]|53[1][1][0]|77[1][0])", 290).
enter("Pepoli_2_1127", "77[1][1]", 290).
exit("Pepoli_2_1127", "77[1][1]", 330).
origin("XXI_Aprile_7_819", "91").
enter("XXI_Aprile_7_819", "91", 0).
exit("XXI_Aprile_7_819", "91", 5).
enter("XXI_Aprile_7_819", "186", 5).
exit("XXI_Aprile_7_819", "186", 75).
enter("XXI_Aprile_7_819", "[109[0]|109[1][0]+20003|109[1][1]]", 75).
exit("XXI_Aprile_7_819", "[109[0]|109[1][0]+20003|109[1][1]]", 85).
enter("XXI_Aprile_7_819", "120", 85).
exit("XXI_Aprile_7_819", "120", 135).
enter("XXI_Aprile_7_819", "117", 135).
exit("XXI_Aprile_7_819", "117", 180).
enter("XXI_Aprile_7_819", "209", 180).
exit("XXI_Aprile_7_819", "209", 415).
origin("Pepoli_11_1825", "201").
enter("Pepoli_11_1825", "201", 0).
exit("Pepoli_11_1825", "201", 135).
enter("Pepoli_11_1825", "201c", 135).
exit("Pepoli_11_1825", "201c", 170).
enter("Pepoli_11_1825", "204a[0]", 170).
exit("Pepoli_11_1825", "204a[0]", 290).
enter("Pepoli_11_1825", "124", 290).
exit("Pepoli_11_1825", "124", 335).
origin("Vittorio_Veneto_10_374", "161").
enter("Vittorio_Veneto_10_374", "161", 0).
exit("Vittorio_Veneto_10_374", "161", 50).
enter("Vittorio_Veneto_10_374", "122", 50).
exit("Vittorio_Veneto_10_374", "122", 105).
enter("Vittorio_Veneto_10_374", "1b", 105).
exit("Vittorio_Veneto_10_374", "1b", 165).
enter("Vittorio_Veneto_10_374", "1", 165).
exit("Vittorio_Veneto_10_374", "1", 200).
enter("Vittorio_Veneto_10_374", "204a[0]", 200).
exit("Vittorio_Veneto_10_374", "204a[0]", 320).
enter("Vittorio_Veneto_10_374", "204b[0]", 320).
exit("Vittorio_Veneto_10_374", "204b[0]", 325).
enter("Vittorio_Veneto_10_374", "204[1][0]", 325).
exit("Vittorio_Veneto_10_374", "204[1][0]", 360).
enter("Vittorio_Veneto_10_374", "204[1][1]", 360).
exit("Vittorio_Veneto_10_374", "204[1][1]", 395).
origin("XXI_Aprile_113_642", "204a[0]").
enter("XXI_Aprile_113_642", "204a[0]", 0).
exit("XXI_Aprile_113_642", "204a[0]", 120).
enter("XXI_Aprile_113_642", "124", 120).
exit("XXI_Aprile_113_642", "124", 165).
origin("Audinot_1_160", "131").
enter("Audinot_1_160", "131", 0).
exit("Audinot_1_160", "131", 80).
enter("Audinot_1_160", "65", 80).
exit("Audinot_1_160", "65", 125).
enter("Audinot_1_160", "57[0]", 125).
exit("Audinot_1_160", "57[0]", 210).
enter("Audinot_1_160", "57[1]", 210).
exit("Audinot_1_160", "57[1]", 225).
enter("Audinot_1_160", "62", 225).
exit("Audinot_1_160", "62", 315).
enter("Audinot_1_160", "159", 315).
exit("Audinot_1_160", "159", 420).
enter("Audinot_1_160", "42", 420).
exit("Audinot_1_160", "42", 440).
enter("Audinot_1_160", "39", 440).
exit("Audinot_1_160", "39", 460).
enter("Audinot_1_160", "35", 460).
exit("Audinot_1_160", "35", 515).
enter("Audinot_1_160", "38", 515).
exit("Audinot_1_160", "38", 575).
enter("Audinot_1_160", "50", 575).
exit("Audinot_1_160", "50", 635).
enter("Audinot_1_160", "19", 635).
exit("Audinot_1_160", "19", 670).
enter("Audinot_1_160", "[22|59]", 670).
exit("Audinot_1_160", "[22|59]", 740).
enter("Audinot_1_160", "(53cd|53[0]|53[1][0])", 740).
exit("Audinot_1_160", "(53cd|53[0]|53[1][0])", 760).
enter("Audinot_1_160", "79", 760).
exit("Audinot_1_160", "79", 830).
enter("Audinot_1_160", "[68|11]", 830).
exit("Audinot_1_160", "[68|11]", 910).
enter("Audinot_1_160", "86", 910).
exit("Audinot_1_160", "86", 950).
origin("Pepoli_3_1624", "[210|43[0]]").
enter("Pepoli_3_1624", "[210|43[0]]", 0).
exit("Pepoli_3_1624", "[210|43[0]]", 65).
enter("Pepoli_3_1624", "118", 65).
exit("Pepoli_3_1624", "118", 100).
enter("Pepoli_3_1624", "65", 100).
exit("Pepoli_3_1624", "65", 125).
enter("Pepoli_3_1624", "57[0]", 125).
exit("Pepoli_3_1624", "57[0]", 140).
enter("Pepoli_3_1624", "57[1]", 140).
exit("Pepoli_3_1624", "57[1]", 165).
enter("Pepoli_3_1624", "62", 165).
exit("Pepoli_3_1624", "62", 190).
enter("Pepoli_3_1624", "159", 190).
exit("Pepoli_3_1624", "159", 230).
enter("Pepoli_3_1624", "42", 230).
exit("Pepoli_3_1624", "42", 250).
enter("Pepoli_3_1624", "39", 250).
exit("Pepoli_3_1624", "39", 335).
enter("Pepoli_3_1624", "35", 335).
exit("Pepoli_3_1624", "35", 390).
enter("Pepoli_3_1624", "38", 390).
exit("Pepoli_3_1624", "38", 470).
enter("Pepoli_3_1624", "33", 470).
exit("Pepoli_3_1624", "33", 500).
enter("Pepoli_3_1624", "10", 500).
exit("Pepoli_3_1624", "10", 515).
origin("Vittorio_Veneto_10_653", "224[0]").
enter("Vittorio_Veneto_10_653", "224[0]", 0).
exit("Vittorio_Veneto_10_653", "224[0]", 85).
enter("Vittorio_Veneto_10_653", "224[1]", 85).
exit("Vittorio_Veneto_10_653", "224[1]", 135).
enter("Vittorio_Veneto_10_653", "[181|18]", 135).
exit("Vittorio_Veneto_10_653", "[181|18]", 185).
enter("Vittorio_Veneto_10_653", "[17|71]", 185).
exit("Vittorio_Veneto_10_653", "[17|71]", 235).
enter("Vittorio_Veneto_10_653", "67", 235).
exit("Vittorio_Veneto_10_653", "67", 325).
enter("Vittorio_Veneto_10_653", "[80|127]", 325).
exit("Vittorio_Veneto_10_653", "[80|127]", 340).
enter("Vittorio_Veneto_10_653", "(77[1][0]|77ab|77bc|77cd|53cd|53[0])", 340).
exit("Vittorio_Veneto_10_653", "(77[1][0]|77ab|77bc|77cd|53cd|53[0])", 350).
enter("Vittorio_Veneto_10_653", "78[1][1]", 350).
exit("Vittorio_Veneto_10_653", "78[1][1]", 360).
enter("Vittorio_Veneto_10_653", "[189[0]|189[1][0]+20000|189[1][1]]", 360).
exit("Vittorio_Veneto_10_653", "[189[0]|189[1][0]+20000|189[1][1]]", 410).
enter("Vittorio_Veneto_10_653", "188", 410).
exit("Vittorio_Veneto_10_653", "188", 465).
enter("Vittorio_Veneto_10_653", "[87[0]|20001+87[1][0]|87[1][1]]", 465).
exit("Vittorio_Veneto_10_653", "[87[0]|20001+87[1][0]|87[1][1]]", 470).
enter("Vittorio_Veneto_10_653", "m90", 470).
exit("Vittorio_Veneto_10_653", "m90", 485).
enter("Vittorio_Veneto_10_653", "[89[0]|20002+89[1][0]|89[1][1]]", 485).
exit("Vittorio_Veneto_10_653", "[89[0]|20002+89[1][0]|89[1][1]]", 505).
enter("Vittorio_Veneto_10_653", "91", 505).
exit("Vittorio_Veneto_10_653", "91", 510).
enter("Vittorio_Veneto_10_653", "186", 510).
exit("Vittorio_Veneto_10_653", "186", 525).
enter("Vittorio_Veneto_10_653", "[109[0]|109[1][0]+20003|109[1][1]]", 525).
exit("Vittorio_Veneto_10_653", "[109[0]|109[1][0]+20003|109[1][1]]", 540).
enter("Vittorio_Veneto_10_653", "[116|46]", 540).
exit("Vittorio_Veneto_10_653", "[116|46]", 595).
enter("Vittorio_Veneto_10_653", "201", 595).
exit("Vittorio_Veneto_10_653", "201", 655).
enter("Vittorio_Veneto_10_653", "201c", 655).
exit("Vittorio_Veneto_10_653", "201c", 690).
enter("Vittorio_Veneto_10_653", "204a[0]", 690).
exit("Vittorio_Veneto_10_653", "204a[0]", 915).
enter("Vittorio_Veneto_10_653", "204b[0]", 915).
exit("Vittorio_Veneto_10_653", "204b[0]", 925).
enter("Vittorio_Veneto_10_653", "204[1][0]", 925).
exit("Vittorio_Veneto_10_653", "204[1][0]", 965).
enter("Vittorio_Veneto_10_653", "204[1][1]", 965).
exit("Vittorio_Veneto_10_653", "204[1][1]", 1140).
origin("Vittorio_Veneto_2_605", "224[0]").
enter("Vittorio_Veneto_2_605", "224[0]", 0).
exit("Vittorio_Veneto_2_605", "224[0]", 75).
enter("Vittorio_Veneto_2_605", "224[1]", 75).
exit("Vittorio_Veneto_2_605", "224[1]", 135).
enter("Vittorio_Veneto_2_605", "[181|18]", 135).
exit("Vittorio_Veneto_2_605", "[181|18]", 195).
enter("Vittorio_Veneto_2_605", "[17|71]", 195).
exit("Vittorio_Veneto_2_605", "[17|71]", 265).
enter("Vittorio_Veneto_2_605", "67", 265).
exit("Vittorio_Veneto_2_605", "67", 275).
enter("Vittorio_Veneto_2_605", "[80|127]", 275).
exit("Vittorio_Veneto_2_605", "[80|127]", 310).
enter("Vittorio_Veneto_2_605", "(77[1][0])", 310).
exit("Vittorio_Veneto_2_605", "(77[1][0])", 330).
enter("Vittorio_Veneto_2_605", "77[1][1]", 330).
exit("Vittorio_Veneto_2_605", "77[1][1]", 370).
origin("Togliatti_10_730", "[181|18]").
enter("Togliatti_10_730", "[181|18]", 0).
exit("Togliatti_10_730", "[181|18]", 125).
enter("Togliatti_10_730", "69", 125).
exit("Togliatti_10_730", "69", 275).
enter("Togliatti_10_730", "161", 275).
exit("Togliatti_10_730", "161", 295).
enter("Togliatti_10_730", "122", 295).
exit("Togliatti_10_730", "122", 1230).
enter("Togliatti_10_730", "1b", 1230).
exit("Togliatti_10_730", "1b", 1510).
enter("Togliatti_10_730", "1", 1510).
exit("Togliatti_10_730", "1", 1900).
enter("Togliatti_10_730", "204a[0]", 1900).
exit("Togliatti_10_730", "204a[0]", 2065).
enter("Togliatti_10_730", "204b[0]", 2065).
exit("Togliatti_10_730", "204b[0]", 2510).
enter("Togliatti_10_730", "204[1][0]", 2510).
exit("Togliatti_10_730", "204[1][0]", 2545).
enter("Togliatti_10_730", "204[1][1]", 2545).
exit("Togliatti_10_730", "204[1][1]", 2600).
origin("Vittorio_Veneto_1_660", "224[0]").
enter("Vittorio_Veneto_1_660", "224[0]", 0).
exit("Vittorio_Veneto_1_660", "224[0]", 140).
enter("Vittorio_Veneto_1_660", "224[1]", 140).
exit("Vittorio_Veneto_1_660", "224[1]", 200).
enter("Vittorio_Veneto_1_660", "[181|18]", 200).
exit("Vittorio_Veneto_1_660", "[181|18]", 275).
enter("Vittorio_Veneto_1_660", "[17|71]", 275).
exit("Vittorio_Veneto_1_660", "[17|71]", 330).
enter("Vittorio_Veneto_1_660", "86", 330).
exit("Vittorio_Veneto_1_660", "86", 360).
origin("Vittorio_Veneto_2_552", "[17|71]").
enter("Vittorio_Veneto_2_552", "[17|71]", 0).
exit("Vittorio_Veneto_2_552", "[17|71]", 55).
enter("Vittorio_Veneto_2_552", "67", 55).
exit("Vittorio_Veneto_2_552", "67", 65).
enter("Vittorio_Veneto_2_552", "[80|127]", 65).
exit("Vittorio_Veneto_2_552", "[80|127]", 100).
enter("Vittorio_Veneto_2_552", "(77[1][0])", 100).
exit("Vittorio_Veneto_2_552", "(77[1][0])", 120).
enter("Vittorio_Veneto_2_552", "77[1][1]", 120).
exit("Vittorio_Veneto_2_552", "77[1][1]", 180).
origin("XXI_Aprile_104_773", "69").
enter("XXI_Aprile_104_773", "69", 0).
exit("XXI_Aprile_104_773", "69", 95).
enter("XXI_Aprile_104_773", "161", 95).
exit("XXI_Aprile_104_773", "161", 145).
enter("XXI_Aprile_104_773", "122", 145).
exit("XXI_Aprile_104_773", "122", 245).
enter("XXI_Aprile_104_773", "1b", 245).
exit("XXI_Aprile_104_773", "1b", 305).
enter("XXI_Aprile_104_773", "1", 305).
exit("XXI_Aprile_104_773", "1", 340).
enter("XXI_Aprile_104_773", "204a[0]", 340).
exit("XXI_Aprile_104_773", "204a[0]", 460).
enter("XXI_Aprile_104_773", "204b[0]", 460).
exit("XXI_Aprile_104_773", "204b[0]", 465).
enter("XXI_Aprile_104_773", "204[1][0]", 465).
exit("XXI_Aprile_104_773", "204[1][0]", 500).
enter("XXI_Aprile_104_773", "204[1][1]", 500).
exit("XXI_Aprile_104_773", "204[1][1]", 535).
origin("Togliatti_11_658", "85").
enter("Togliatti_11_658", "85", 0).
exit("Togliatti_11_658", "85", 60).
enter("Togliatti_11_658", "72[0]", 60).
exit("Togliatti_11_658", "72[0]", 135).
enter("Togliatti_11_658", "72[1]", 135).
exit("Togliatti_11_658", "72[1]", 175).
enter("Togliatti_11_658", "69", 175).
exit("Togliatti_11_658", "69", 270).
enter("Togliatti_11_658", "161", 270).
exit("Togliatti_11_658", "161", 320).
enter("Togliatti_11_658", "122", 320).
exit("Togliatti_11_658", "122", 420).
enter("Togliatti_11_658", "1b", 420).
exit("Togliatti_11_658", "1b", 480).
enter("Togliatti_11_658", "1", 480).
exit("Togliatti_11_658", "1", 515).
enter("Togliatti_11_658", "204a[0]", 515).
exit("Togliatti_11_658", "204a[0]", 635).
enter("Togliatti_11_658", "124", 635).
exit("Togliatti_11_658", "124", 680).
origin("Togliatti_10_585", "72[0]").
enter("Togliatti_10_585", "72[0]", 0).
exit("Togliatti_10_585", "72[0]", 75).
enter("Togliatti_10_585", "72[1]", 75).
exit("Togliatti_10_585", "72[1]", 115).
enter("Togliatti_10_585", "69", 115).
exit("Togliatti_10_585", "69", 210).
enter("Togliatti_10_585", "161", 210).
exit("Togliatti_10_585", "161", 260).
enter("Togliatti_10_585", "122", 260).
exit("Togliatti_10_585", "122", 315).
enter("Togliatti_10_585", "1b", 315).
exit("Togliatti_10_585", "1b", 375).
enter("Togliatti_10_585", "1", 375).
exit("Togliatti_10_585", "1", 410).
enter("Togliatti_10_585", "204a[0]", 410).
exit("Togliatti_10_585", "204a[0]", 530).
enter("Togliatti_10_585", "204b[0]", 530).
exit("Togliatti_10_585", "204b[0]", 535).
enter("Togliatti_10_585", "204[1][0]", 535).
exit("Togliatti_10_585", "204[1][0]", 570).
enter("Togliatti_10_585", "204[1][1]", 570).
exit("Togliatti_10_585", "204[1][1]", 605).
origin("Vittorio_Veneto_82_504", "122").
enter("Vittorio_Veneto_82_504", "122", 0).
exit("Vittorio_Veneto_82_504", "122", 100).
enter("Vittorio_Veneto_82_504", "[3|2]", 100).
exit("Vittorio_Veneto_82_504", "[3|2]", 140).
enter("Vittorio_Veneto_82_504", "[202|34]", 140).
exit("Vittorio_Veneto_82_504", "[202|34]", 275).
enter("Vittorio_Veneto_82_504", "134", 275).
exit("Vittorio_Veneto_82_504", "134", 285).
origin("Costa_50_1365", "[200|60]").
enter("Costa_50_1365", "[200|60]", 0).
exit("Costa_50_1365", "[200|60]", 135).
origin("Pepoli_11_1687", "43[1]").
enter("Pepoli_11_1687", "43[1]", 0).
exit("Pepoli_11_1687", "43[1]", 70).
enter("Pepoli_11_1687", "201", 70).
exit("Pepoli_11_1687", "201", 205).
enter("Pepoli_11_1687", "201c", 205).
exit("Pepoli_11_1687", "201c", 240).
enter("Pepoli_11_1687", "204a[0]", 240).
exit("Pepoli_11_1687", "204a[0]", 360).
enter("Pepoli_11_1687", "124", 360).
exit("Pepoli_11_1687", "124", 405).
origin("XXI_Aprile_102_627", "161").
enter("XXI_Aprile_102_627", "161", 0).
exit("XXI_Aprile_102_627", "161", 50).
enter("XXI_Aprile_102_627", "122", 50).
exit("XXI_Aprile_102_627", "122", 150).
enter("XXI_Aprile_102_627", "1b", 150).
exit("XXI_Aprile_102_627", "1b", 210).
enter("XXI_Aprile_102_627", "1", 210).
exit("XXI_Aprile_102_627", "1", 245).
enter("XXI_Aprile_102_627", "204a[0]", 245).
exit("XXI_Aprile_102_627", "204a[0]", 365).
enter("XXI_Aprile_102_627", "204b[0]", 365).
exit("XXI_Aprile_102_627", "204b[0]", 370).
enter("XXI_Aprile_102_627", "204[1][0]", 370).
exit("XXI_Aprile_102_627", "204[1][0]", 405).
enter("XXI_Aprile_102_627", "204[1][1]", 405).
exit("XXI_Aprile_102_627", "204[1][1]", 605).
origin("Pepoli_11_1806", "201").
enter("Pepoli_11_1806", "201", 0).
exit("Pepoli_11_1806", "201", 135).
enter("Pepoli_11_1806", "201c", 135).
exit("Pepoli_11_1806", "201c", 170).
enter("Pepoli_11_1806", "204a[0]", 170).
exit("Pepoli_11_1806", "204a[0]", 290).
enter("Pepoli_11_1806", "124", 290).
exit("Pepoli_11_1806", "124", 335).
origin("Togliatti_10_628", "85").
enter("Togliatti_10_628", "85", 0).
exit("Togliatti_10_628", "85", 110).
enter("Togliatti_10_628", "72[0]", 110).
exit("Togliatti_10_628", "72[0]", 185).
enter("Togliatti_10_628", "72[1]", 185).
exit("Togliatti_10_628", "72[1]", 225).
enter("Togliatti_10_628", "69", 225).
exit("Togliatti_10_628", "69", 320).
enter("Togliatti_10_628", "161", 320).
exit("Togliatti_10_628", "161", 370).
enter("Togliatti_10_628", "122", 370).
exit("Togliatti_10_628", "122", 425).
enter("Togliatti_10_628", "1b", 425).
exit("Togliatti_10_628", "1b", 485).
enter("Togliatti_10_628", "1", 485).
exit("Togliatti_10_628", "1", 520).
enter("Togliatti_10_628", "204a[0]", 520).
exit("Togliatti_10_628", "204a[0]", 640).
enter("Togliatti_10_628", "204b[0]", 640).
exit("Togliatti_10_628", "204b[0]", 645).
enter("Togliatti_10_628", "204[1][0]", 645).
exit("Togliatti_10_628", "204[1][0]", 680).
enter("Togliatti_10_628", "204[1][1]", 680).
exit("Togliatti_10_628", "204[1][1]", 715).
origin("XXI_Aprile_12_954", "[189[0]|189[1][0]+20000|189[1][1]]").
enter("XXI_Aprile_12_954", "[189[0]|189[1][0]+20000|189[1][1]]", 0).
exit("XXI_Aprile_12_954", "[189[0]|189[1][0]+20000|189[1][1]]", 50).
enter("XXI_Aprile_12_954", "191", 50).
exit("XXI_Aprile_12_954", "191", 95).
enter("XXI_Aprile_12_954", "[17|71]", 95).
exit("XXI_Aprile_12_954", "[17|71]", 160).
enter("XXI_Aprile_12_954", "84", 160).
exit("XXI_Aprile_12_954", "84", 210).
enter("XXI_Aprile_12_954", "180", 210).
exit("XXI_Aprile_12_954", "180", 255).
origin("XXI_Aprile_7_760", "186").
enter("XXI_Aprile_7_760", "186", 0).
exit("XXI_Aprile_7_760", "186", 30).
enter("XXI_Aprile_7_760", "[109[0]|109[1][0]+20003|109[1][1]]", 30).
exit("XXI_Aprile_7_760", "[109[0]|109[1][0]+20003|109[1][1]]", 65).
enter("XXI_Aprile_7_760", "[116|46]", 65).
exit("XXI_Aprile_7_760", "[116|46]", 130).
enter("XXI_Aprile_7_760", "113", 130).
exit("XXI_Aprile_7_760", "113", 180).
enter("XXI_Aprile_7_760", "209", 180).
exit("XXI_Aprile_7_760", "209", 230).
origin("XXI_Aprile_7_928", "117").
enter("XXI_Aprile_7_928", "117", 0).
exit("XXI_Aprile_7_928", "117", 65).
enter("XXI_Aprile_7_928", "209", 65).
exit("XXI_Aprile_7_928", "209", 100).
origin("Costa_200_1218", "204a[0]").
enter("Costa_200_1218", "204a[0]", 0).
exit("Costa_200_1218", "204a[0]", 120).
enter("Costa_200_1218", "204b[0]", 120).
exit("Costa_200_1218", "204b[0]", 125).
enter("Costa_200_1218", "204[1][0]", 125).
exit("Costa_200_1218", "204[1][0]", 160).
enter("Costa_200_1218", "204[1][1]", 160).
exit("Costa_200_1218", "204[1][1]", 195).
origin("XXI_Aprile_1_983", "15").
enter("XXI_Aprile_1_983", "15", 0).
exit("XXI_Aprile_1_983", "15", 80).
enter("XXI_Aprile_1_983", "24", 80).
exit("XXI_Aprile_1_983", "24", 95).
enter("XXI_Aprile_1_983", "[22|59]", 95).
exit("XXI_Aprile_1_983", "[22|59]", 120).
enter("XXI_Aprile_1_983", "(53cd|53[0]|53[1][0])", 120).
exit("XXI_Aprile_1_983", "(53cd|53[0]|53[1][0])", 145).
enter("XXI_Aprile_1_983", "79", 145).
exit("XXI_Aprile_1_983", "79", 160).
enter("XXI_Aprile_1_983", "[68|11]", 160).
exit("XXI_Aprile_1_983", "[68|11]", 205).
enter("XXI_Aprile_1_983", "86", 205).
exit("XXI_Aprile_1_983", "86", 235).
origin("Costa_11_1214", "161").
enter("Costa_11_1214", "161", 0).
exit("Costa_11_1214", "161", 50).
enter("Costa_11_1214", "122", 50).
exit("Costa_11_1214", "122", 105).
enter("Costa_11_1214", "1b", 105).
exit("Costa_11_1214", "1b", 165).
enter("Costa_11_1214", "1", 165).
exit("Costa_11_1214", "1", 200).
enter("Costa_11_1214", "204a[0]", 200).
exit("Costa_11_1214", "204a[0]", 320).
enter("Costa_11_1214", "124", 320).
exit("Costa_11_1214", "124", 365).
origin("Pepoli_3_1472", "118").
enter("Pepoli_3_1472", "118", 0).
exit("Pepoli_3_1472", "118", 120).
enter("Pepoli_3_1472", "65", 120).
exit("Pepoli_3_1472", "65", 145).
enter("Pepoli_3_1472", "57[0]", 145).
exit("Pepoli_3_1472", "57[0]", 160).
enter("Pepoli_3_1472", "57[1]", 160).
exit("Pepoli_3_1472", "57[1]", 235).
enter("Pepoli_3_1472", "62", 235).
exit("Pepoli_3_1472", "62", 355).
enter("Pepoli_3_1472", "159", 355).
exit("Pepoli_3_1472", "159", 460).
enter("Pepoli_3_1472", "42", 460).
exit("Pepoli_3_1472", "42", 475).
enter("Pepoli_3_1472", "39", 475).
exit("Pepoli_3_1472", "39", 500).
enter("Pepoli_3_1472", "35", 500).
exit("Pepoli_3_1472", "35", 540).
enter("Pepoli_3_1472", "38", 540).
exit("Pepoli_3_1472", "38", 570).
enter("Pepoli_3_1472", "15", 570).
exit("Pepoli_3_1472", "15", 620).
enter("Pepoli_3_1472", "14", 620).
exit("Pepoli_3_1472", "14", 630).
origin("Pepoli_3_1035", "15").
enter("Pepoli_3_1035", "15", 0).
exit("Pepoli_3_1035", "15", 75).
enter("Pepoli_3_1035", "14", 75).
exit("Pepoli_3_1035", "14", 115).
origin("Vittorio_Veneto_2_627", "224[0]").
enter("Vittorio_Veneto_2_627", "224[0]", 0).
exit("Vittorio_Veneto_2_627", "224[0]", 140).
enter("Vittorio_Veneto_2_627", "224[1]", 140).
exit("Vittorio_Veneto_2_627", "224[1]", 200).
enter("Vittorio_Veneto_2_627", "[181|18]", 200).
exit("Vittorio_Veneto_2_627", "[181|18]", 275).
enter("Vittorio_Veneto_2_627", "[17|71]", 275).
exit("Vittorio_Veneto_2_627", "[17|71]", 330).
enter("Vittorio_Veneto_2_627", "67", 330).
exit("Vittorio_Veneto_2_627", "67", 345).
enter("Vittorio_Veneto_2_627", "[80|127]", 345).
exit("Vittorio_Veneto_2_627", "[80|127]", 380).
enter("Vittorio_Veneto_2_627", "(77[1][0])", 380).
exit("Vittorio_Veneto_2_627", "(77[1][0])", 400).
enter("Vittorio_Veneto_2_627", "77[1][1]", 400).
exit("Vittorio_Veneto_2_627", "77[1][1]", 440).
origin("Vittorio_Veneto_1_641", "224[0]").
enter("Vittorio_Veneto_1_641", "224[0]", 0).
exit("Vittorio_Veneto_1_641", "224[0]", 140).
enter("Vittorio_Veneto_1_641", "224[1]", 140).
exit("Vittorio_Veneto_1_641", "224[1]", 200).
enter("Vittorio_Veneto_1_641", "[181|18]", 200).
exit("Vittorio_Veneto_1_641", "[181|18]", 275).
enter("Vittorio_Veneto_1_641", "[17|71]", 275).
exit("Vittorio_Veneto_1_641", "[17|71]", 330).
enter("Vittorio_Veneto_1_641", "86", 330).
exit("Vittorio_Veneto_1_641", "86", 360).
origin("Vittorio_Veneto_2_575", "[181|18]").
enter("Vittorio_Veneto_2_575", "[181|18]", 0).
exit("Vittorio_Veneto_2_575", "[181|18]", 75).
enter("Vittorio_Veneto_2_575", "[17|71]", 75).
exit("Vittorio_Veneto_2_575", "[17|71]", 125).
enter("Vittorio_Veneto_2_575", "67", 125).
exit("Vittorio_Veneto_2_575", "67", 135).
enter("Vittorio_Veneto_2_575", "[80|127]", 135).
exit("Vittorio_Veneto_2_575", "[80|127]", 155).
enter("Vittorio_Veneto_2_575", "(77[1][0])", 155).
exit("Vittorio_Veneto_2_575", "(77[1][0])", 170).
enter("Vittorio_Veneto_2_575", "77[1][1]", 170).
exit("Vittorio_Veneto_2_575", "77[1][1]", 230).
origin("Togliatti_10_616", "72[0]").
enter("Togliatti_10_616", "72[0]", 0).
exit("Togliatti_10_616", "72[0]", 75).
enter("Togliatti_10_616", "72[1]", 75).
exit("Togliatti_10_616", "72[1]", 115).
enter("Togliatti_10_616", "69", 115).
exit("Togliatti_10_616", "69", 210).
enter("Togliatti_10_616", "161", 210).
exit("Togliatti_10_616", "161", 260).
enter("Togliatti_10_616", "122", 260).
exit("Togliatti_10_616", "122", 315).
enter("Togliatti_10_616", "1b", 315).
exit("Togliatti_10_616", "1b", 375).
enter("Togliatti_10_616", "1", 375).
exit("Togliatti_10_616", "1", 410).
enter("Togliatti_10_616", "204a[0]", 410).
exit("Togliatti_10_616", "204a[0]", 530).
enter("Togliatti_10_616", "204b[0]", 530).
exit("Togliatti_10_616", "204b[0]", 535).
enter("Togliatti_10_616", "204[1][0]", 535).
exit("Togliatti_10_616", "204[1][0]", 570).
enter("Togliatti_10_616", "204[1][1]", 570).
exit("Togliatti_10_616", "204[1][1]", 625).
origin("Vittorio_Veneto_10_481", "161").
enter("Vittorio_Veneto_10_481", "161", 0).
exit("Vittorio_Veneto_10_481", "161", 90).
enter("Vittorio_Veneto_10_481", "122", 90).
exit("Vittorio_Veneto_10_481", "122", 190).
enter("Vittorio_Veneto_10_481", "1b", 190).
exit("Vittorio_Veneto_10_481", "1b", 250).
enter("Vittorio_Veneto_10_481", "1", 250).
exit("Vittorio_Veneto_10_481", "1", 285).
enter("Vittorio_Veneto_10_481", "204a[0]", 285).
exit("Vittorio_Veneto_10_481", "204a[0]", 405).
enter("Vittorio_Veneto_10_481", "204b[0]", 405).
exit("Vittorio_Veneto_10_481", "204b[0]", 410).
enter("Vittorio_Veneto_10_481", "204[1][0]", 410).
exit("Vittorio_Veneto_10_481", "204[1][0]", 445).
enter("Vittorio_Veneto_10_481", "204[1][1]", 445).
exit("Vittorio_Veneto_10_481", "204[1][1]", 645).
origin("Togliatti_10_635", "85").
enter("Togliatti_10_635", "85", 0).
exit("Togliatti_10_635", "85", 110).
enter("Togliatti_10_635", "72[0]", 110).
exit("Togliatti_10_635", "72[0]", 185).
enter("Togliatti_10_635", "72[1]", 185).
exit("Togliatti_10_635", "72[1]", 225).
enter("Togliatti_10_635", "69", 225).
exit("Togliatti_10_635", "69", 320).
enter("Togliatti_10_635", "161", 320).
exit("Togliatti_10_635", "161", 370).
enter("Togliatti_10_635", "122", 370).
exit("Togliatti_10_635", "122", 470).
enter("Togliatti_10_635", "1b", 470).
exit("Togliatti_10_635", "1b", 530).
enter("Togliatti_10_635", "1", 530).
exit("Togliatti_10_635", "1", 565).
enter("Togliatti_10_635", "204a[0]", 565).
exit("Togliatti_10_635", "204a[0]", 685).
enter("Togliatti_10_635", "204b[0]", 685).
exit("Togliatti_10_635", "204b[0]", 690).
enter("Togliatti_10_635", "204[1][0]", 690).
exit("Togliatti_10_635", "204[1][0]", 725).
enter("Togliatti_10_635", "204[1][1]", 725).
exit("Togliatti_10_635", "204[1][1]", 780).
origin("XXI_Aprile_7_791", "186").
enter("XXI_Aprile_7_791", "186", 0).
exit("XXI_Aprile_7_791", "186", 30).
enter("XXI_Aprile_7_791", "[109[0]|109[1][0]+20003|109[1][1]]", 30).
exit("XXI_Aprile_7_791", "[109[0]|109[1][0]+20003|109[1][1]]", 65).
enter("XXI_Aprile_7_791", "[116|46]", 65).
exit("XXI_Aprile_7_791", "[116|46]", 115).
enter("XXI_Aprile_7_791", "113", 115).
exit("XXI_Aprile_7_791", "113", 155).
enter("XXI_Aprile_7_791", "209", 155).
exit("XXI_Aprile_7_791", "209", 190).
origin("Togliatti_10_710", "85").
enter("Togliatti_10_710", "85", 0).
exit("Togliatti_10_710", "85", 60).
enter("Togliatti_10_710", "72[0]", 60).
exit("Togliatti_10_710", "72[0]", 135).
enter("Togliatti_10_710", "72[1]", 135).
exit("Togliatti_10_710", "72[1]", 175).
enter("Togliatti_10_710", "69", 175).
exit("Togliatti_10_710", "69", 270).
enter("Togliatti_10_710", "161", 270).
exit("Togliatti_10_710", "161", 320).
enter("Togliatti_10_710", "122", 320).
exit("Togliatti_10_710", "122", 420).
enter("Togliatti_10_710", "1b", 420).
exit("Togliatti_10_710", "1b", 480).
enter("Togliatti_10_710", "1", 480).
exit("Togliatti_10_710", "1", 515).
enter("Togliatti_10_710", "204a[0]", 515).
exit("Togliatti_10_710", "204a[0]", 635).
enter("Togliatti_10_710", "204b[0]", 635).
exit("Togliatti_10_710", "204b[0]", 640).
enter("Togliatti_10_710", "204[1][0]", 640).
exit("Togliatti_10_710", "204[1][0]", 675).
enter("Togliatti_10_710", "204[1][1]", 675).
exit("Togliatti_10_710", "204[1][1]", 710).
origin("Vittorio_Veneto_10_503", "69").
enter("Vittorio_Veneto_10_503", "69", 0).
exit("Vittorio_Veneto_10_503", "69", 95).
enter("Vittorio_Veneto_10_503", "161", 95).
exit("Vittorio_Veneto_10_503", "161", 145).
enter("Vittorio_Veneto_10_503", "122", 145).
exit("Vittorio_Veneto_10_503", "122", 245).
enter("Vittorio_Veneto_10_503", "1b", 245).
exit("Vittorio_Veneto_10_503", "1b", 305).
enter("Vittorio_Veneto_10_503", "1", 305).
exit("Vittorio_Veneto_10_503", "1", 340).
enter("Vittorio_Veneto_10_503", "204a[0]", 340).
exit("Vittorio_Veneto_10_503", "204a[0]", 460).
enter("Vittorio_Veneto_10_503", "204b[0]", 460).
exit("Vittorio_Veneto_10_503", "204b[0]", 465).
enter("Vittorio_Veneto_10_503", "204[1][0]", 465).
exit("Vittorio_Veneto_10_503", "204[1][0]", 500).
enter("Vittorio_Veneto_10_503", "204[1][1]", 500).
exit("Vittorio_Veneto_10_503", "204[1][1]", 700).
origin("Pepoli_11_1947", "43[1]").
enter("Pepoli_11_1947", "43[1]", 0).
exit("Pepoli_11_1947", "43[1]", 70).
enter("Pepoli_11_1947", "201", 70).
exit("Pepoli_11_1947", "201", 205).
enter("Pepoli_11_1947", "201c", 205).
exit("Pepoli_11_1947", "201c", 240).
enter("Pepoli_11_1947", "204a[0]", 240).
exit("Pepoli_11_1947", "204a[0]", 360).
enter("Pepoli_11_1947", "124", 360).
exit("Pepoli_11_1947", "124", 405).
origin("Pepoli_2_1377", "159").
enter("Pepoli_2_1377", "159", 0).
exit("Pepoli_2_1377", "159", 105).
enter("Pepoli_2_1377", "42", 105).
exit("Pepoli_2_1377", "42", 125).
enter("Pepoli_2_1377", "39", 125).
exit("Pepoli_2_1377", "39", 145).
enter("Pepoli_2_1377", "35", 145).
exit("Pepoli_2_1377", "35", 200).
enter("Pepoli_2_1377", "38", 200).
exit("Pepoli_2_1377", "38", 260).
enter("Pepoli_2_1377", "50", 260).
exit("Pepoli_2_1377", "50", 290).
enter("Pepoli_2_1377", "19", 290).
exit("Pepoli_2_1377", "19", 325).
enter("Pepoli_2_1377", "[22|59]", 325).
exit("Pepoli_2_1377", "[22|59]", 395).
enter("Pepoli_2_1377", "(53cd|53[0]|53[1][0]|53[1][1][0]|77[1][0])", 395).
exit("Pepoli_2_1377", "(53cd|53[0]|53[1][0]|53[1][1][0]|77[1][0])", 400).
enter("Pepoli_2_1377", "77[1][1]", 400).
exit("Pepoli_2_1377", "77[1][1]", 440).
origin("Costa_200_1327", "69").
enter("Costa_200_1327", "69", 0).
exit("Costa_200_1327", "69", 95).
enter("Costa_200_1327", "161", 95).
exit("Costa_200_1327", "161", 145).
enter("Costa_200_1327", "122", 145).
exit("Costa_200_1327", "122", 245).
enter("Costa_200_1327", "1b", 245).
exit("Costa_200_1327", "1b", 305).
enter("Costa_200_1327", "1", 305).
exit("Costa_200_1327", "1", 340).
enter("Costa_200_1327", "204a[0]", 340).
exit("Costa_200_1327", "204a[0]", 460).
enter("Costa_200_1327", "204b[0]", 460).
exit("Costa_200_1327", "204b[0]", 465).
enter("Costa_200_1327", "204[1][0]", 465).
exit("Costa_200_1327", "204[1][0]", 500).
enter("Costa_200_1327", "204[1][1]", 500).
exit("Costa_200_1327", "204[1][1]", 535).
origin("Pepoli_11_1954", "201").
enter("Pepoli_11_1954", "201", 0).
exit("Pepoli_11_1954", "201", 135).
enter("Pepoli_11_1954", "201c", 135).
exit("Pepoli_11_1954", "201c", 170).
enter("Pepoli_11_1954", "204a[0]", 170).
exit("Pepoli_11_1954", "204a[0]", 290).
enter("Pepoli_11_1954", "124", 290).
exit("Pepoli_11_1954", "124", 335).
origin("Togliatti_10_717", "85").
enter("Togliatti_10_717", "85", 0).
exit("Togliatti_10_717", "85", 60).
enter("Togliatti_10_717", "72[0]", 60).
exit("Togliatti_10_717", "72[0]", 330).
enter("Togliatti_10_717", "72[1]", 330).
exit("Togliatti_10_717", "72[1]", 430).
enter("Togliatti_10_717", "69", 430).
exit("Togliatti_10_717", "69", 540).
enter("Togliatti_10_717", "161", 540).
exit("Togliatti_10_717", "161", 565).
enter("Togliatti_10_717", "122", 565).
exit("Togliatti_10_717", "122", 605).
enter("Togliatti_10_717", "1b", 605).
exit("Togliatti_10_717", "1b", 1705).
enter("Togliatti_10_717", "1", 1705).
exit("Togliatti_10_717", "1", 1750).
enter("Togliatti_10_717", "204a[0]", 1750).
exit("Togliatti_10_717", "204a[0]", 1810).
enter("Togliatti_10_717", "204b[0]", 1810).
exit("Togliatti_10_717", "204b[0]", 1905).
enter("Togliatti_10_717", "204[1][0]", 1905).
exit("Togliatti_10_717", "204[1][0]", 1940).
enter("Togliatti_10_717", "204[1][1]", 1940).
exit("Togliatti_10_717", "204[1][1]", 2165).
origin("Vittorio_Veneto_1_586", "224[1]").
enter("Vittorio_Veneto_1_586", "224[1]", 0).
exit("Vittorio_Veneto_1_586", "224[1]", 60).
enter("Vittorio_Veneto_1_586", "[181|18]", 60).
exit("Vittorio_Veneto_1_586", "[181|18]", 135).
enter("Vittorio_Veneto_1_586", "[17|71]", 135).
exit("Vittorio_Veneto_1_586", "[17|71]", 190).
enter("Vittorio_Veneto_1_586", "86", 190).
exit("Vittorio_Veneto_1_586", "86", 220).
origin("Vittorio_Veneto_2_593", "224[1]").
enter("Vittorio_Veneto_2_593", "224[1]", 0).
exit("Vittorio_Veneto_2_593", "224[1]", 60).
enter("Vittorio_Veneto_2_593", "[181|18]", 60).
exit("Vittorio_Veneto_2_593", "[181|18]", 135).
enter("Vittorio_Veneto_2_593", "[17|71]", 135).
exit("Vittorio_Veneto_2_593", "[17|71]", 190).
enter("Vittorio_Veneto_2_593", "67", 190).
exit("Vittorio_Veneto_2_593", "67", 200).
enter("Vittorio_Veneto_2_593", "[80|127]", 200).
exit("Vittorio_Veneto_2_593", "[80|127]", 220).
enter("Vittorio_Veneto_2_593", "(77[1][0])", 220).
exit("Vittorio_Veneto_2_593", "(77[1][0])", 240).
enter("Vittorio_Veneto_2_593", "77[1][1]", 240).
exit("Vittorio_Veneto_2_593", "77[1][1]", 280).
origin("Togliatti_10_663", "85").
enter("Togliatti_10_663", "85", 0).
exit("Togliatti_10_663", "85", 60).
enter("Togliatti_10_663", "72[0]", 60).
exit("Togliatti_10_663", "72[0]", 135).
enter("Togliatti_10_663", "72[1]", 135).
exit("Togliatti_10_663", "72[1]", 175).
enter("Togliatti_10_663", "69", 175).
exit("Togliatti_10_663", "69", 270).
enter("Togliatti_10_663", "161", 270).
exit("Togliatti_10_663", "161", 320).
enter("Togliatti_10_663", "122", 320).
exit("Togliatti_10_663", "122", 420).
enter("Togliatti_10_663", "1b", 420).
exit("Togliatti_10_663", "1b", 480).
enter("Togliatti_10_663", "1", 480).
exit("Togliatti_10_663", "1", 515).
enter("Togliatti_10_663", "204a[0]", 515).
exit("Togliatti_10_663", "204a[0]", 635).
enter("Togliatti_10_663", "204b[0]", 635).
exit("Togliatti_10_663", "204b[0]", 640).
enter("Togliatti_10_663", "204[1][0]", 640).
exit("Togliatti_10_663", "204[1][0]", 675).
enter("Togliatti_10_663", "204[1][1]", 675).
exit("Togliatti_10_663", "204[1][1]", 875).
origin("Pepoli_5_1480", "118").
enter("Pepoli_5_1480", "118", 0).
exit("Pepoli_5_1480", "118", 50).
enter("Pepoli_5_1480", "65", 50).
exit("Pepoli_5_1480", "65", 95).
enter("Pepoli_5_1480", "[200|60]", 95).
exit("Pepoli_5_1480", "[200|60]", 135).
origin("Togliatti_9_575", "72[1]").
enter("Togliatti_9_575", "72[1]", 0).
exit("Togliatti_9_575", "72[1]", 40).
enter("Togliatti_9_575", "69", 40).
exit("Togliatti_9_575", "69", 135).
enter("Togliatti_9_575", "161", 135).
exit("Togliatti_9_575", "161", 185).
enter("Togliatti_9_575", "122", 185).
exit("Togliatti_9_575", "122", 240).
enter("Togliatti_9_575", "1b", 240).
exit("Togliatti_9_575", "1b", 300).
enter("Togliatti_9_575", "1", 300).
exit("Togliatti_9_575", "1", 335).
enter("Togliatti_9_575", "204a[0]", 335).
exit("Togliatti_9_575", "204a[0]", 455).
enter("Togliatti_9_575", "204b[0]", 455).
exit("Togliatti_9_575", "204b[0]", 460).
enter("Togliatti_9_575", "54", 460).
exit("Togliatti_9_575", "54", 485).
origin("Pepoli_11_2058", "201").
enter("Pepoli_11_2058", "201", 0).
exit("Pepoli_11_2058", "201", 135).
enter("Pepoli_11_2058", "201c", 135).
exit("Pepoli_11_2058", "201c", 170).
enter("Pepoli_11_2058", "204a[0]", 170).
exit("Pepoli_11_2058", "204a[0]", 290).
enter("Pepoli_11_2058", "124", 290).
exit("Pepoli_11_2058", "124", 335).
origin("Togliatti_10_688", "201").
enter("Togliatti_10_688", "201", 0).
exit("Togliatti_10_688", "201", 230).
enter("Togliatti_10_688", "201c", 230).
exit("Togliatti_10_688", "201c", 460).
enter("Togliatti_10_688", "204a[0]", 460).
exit("Togliatti_10_688", "204a[0]", 625).
enter("Togliatti_10_688", "204b[0]", 625).
exit("Togliatti_10_688", "204b[0]", 1100).
enter("Togliatti_10_688", "204[1][0]", 1100).
exit("Togliatti_10_688", "204[1][0]", 1360).
enter("Togliatti_10_688", "204[1][1]", 1360).
exit("Togliatti_10_688", "204[1][1]", 1945).
origin("XXI_Aprile_93_822", "122").
enter("XXI_Aprile_93_822", "122", 0).
exit("XXI_Aprile_93_822", "122", 655).
enter("XXI_Aprile_93_822", "1b", 655).
exit("XXI_Aprile_93_822", "1b", 2425).
enter("XXI_Aprile_93_822", "1", 2425).
exit("XXI_Aprile_93_822", "1", 2460).
enter("XXI_Aprile_93_822", "204a[0]", 2460).
exit("XXI_Aprile_93_822", "204a[0]", 2535).
enter("XXI_Aprile_93_822", "204b[0]", 2535).
exit("XXI_Aprile_93_822", "204b[0]", 2550).
enter("XXI_Aprile_93_822", "54", 2550).
exit("XXI_Aprile_93_822", "54", 2690).
origin("Togliatti_71_722", "[189[0]|189[1][0]+20000|189[1][1]]").
enter("Togliatti_71_722", "[189[0]|189[1][0]+20000|189[1][1]]", 0).
exit("Togliatti_71_722", "[189[0]|189[1][0]+20000|189[1][1]]", 50).
enter("Togliatti_71_722", "188", 50).
exit("Togliatti_71_722", "188", 125).
enter("Togliatti_71_722", "[87[0]|20001+87[1][0]|87[1][1]]", 125).
exit("Togliatti_71_722", "[87[0]|20001+87[1][0]|87[1][1]]", 130).
enter("Togliatti_71_722", "m90", 130).
exit("Togliatti_71_722", "m90", 140).
enter("Togliatti_71_722", "[89[0]|20002+89[1][0]|89[1][1]]", 140).
exit("Togliatti_71_722", "[89[0]|20002+89[1][0]|89[1][1]]", 160).
enter("Togliatti_71_722", "91", 160).
exit("Togliatti_71_722", "91", 185).
enter("Togliatti_71_722", "186", 185).
exit("Togliatti_71_722", "186", 210).
enter("Togliatti_71_722", "[109[0]|109[1][0]+20003|109[1][1]]", 210).
exit("Togliatti_71_722", "[109[0]|109[1][0]+20003|109[1][1]]", 245).
enter("Togliatti_71_722", "[116|46]", 245).
exit("Togliatti_71_722", "[116|46]", 310).
enter("Togliatti_71_722", "113", 310).
exit("Togliatti_71_722", "113", 350).
enter("Togliatti_71_722", "209", 350).
exit("Togliatti_71_722", "209", 390).
origin("XXI_Aprile_94_964", "74").
enter("XXI_Aprile_94_964", "74", 0).
exit("XXI_Aprile_94_964", "74", 295).
enter("XXI_Aprile_94_964", "72[1]", 295).
exit("XXI_Aprile_94_964", "72[1]", 355).
enter("XXI_Aprile_94_964", "69", 355).
exit("XXI_Aprile_94_964", "69", 400).
enter("XXI_Aprile_94_964", "161", 400).
exit("XXI_Aprile_94_964", "161", 535).
enter("XXI_Aprile_94_964", "122", 535).
exit("XXI_Aprile_94_964", "122", 1240).
enter("XXI_Aprile_94_964", "1b", 1240).
exit("XXI_Aprile_94_964", "1b", 1465).
enter("XXI_Aprile_94_964", "1", 1465).
exit("XXI_Aprile_94_964", "1", 1615).
enter("XXI_Aprile_94_964", "204a[0]", 1615).
exit("XXI_Aprile_94_964", "204a[0]", 2075).
enter("XXI_Aprile_94_964", "204b[0]", 2075).
exit("XXI_Aprile_94_964", "204b[0]", 2280).
enter("XXI_Aprile_94_964", "54", 2280).
exit("XXI_Aprile_94_964", "54", 2970).
origin("Pepoli_11_1867", "43[1]").
enter("Pepoli_11_1867", "43[1]", 0).
exit("Pepoli_11_1867", "43[1]", 70).
enter("Pepoli_11_1867", "201", 70).
exit("Pepoli_11_1867", "201", 205).
enter("Pepoli_11_1867", "201c", 205).
exit("Pepoli_11_1867", "201c", 240).
enter("Pepoli_11_1867", "204a[0]", 240).
exit("Pepoli_11_1867", "204a[0]", 360).
enter("Pepoli_11_1867", "124", 360).
exit("Pepoli_11_1867", "124", 405).
origin("Togliatti_9_650", "85").
enter("Togliatti_9_650", "85", 0).
exit("Togliatti_9_650", "85", 70).
enter("Togliatti_9_650", "72[0]", 70).
exit("Togliatti_9_650", "72[0]", 145).
enter("Togliatti_9_650", "72[1]", 145).
exit("Togliatti_9_650", "72[1]", 185).
enter("Togliatti_9_650", "69", 185).
exit("Togliatti_9_650", "69", 280).
enter("Togliatti_9_650", "161", 280).
exit("Togliatti_9_650", "161", 330).
enter("Togliatti_9_650", "122", 330).
exit("Togliatti_9_650", "122", 430).
enter("Togliatti_9_650", "1b", 430).
exit("Togliatti_9_650", "1b", 490).
enter("Togliatti_9_650", "1", 490).
exit("Togliatti_9_650", "1", 525).
enter("Togliatti_9_650", "204a[0]", 525).
exit("Togliatti_9_650", "204a[0]", 645).
enter("Togliatti_9_650", "204b[0]", 645).
exit("Togliatti_9_650", "204b[0]", 650).
enter("Togliatti_9_650", "54", 650).
exit("Togliatti_9_650", "54", 675).
origin("Costa_70_1368", "209").
enter("Costa_70_1368", "209", 0).
exit("Costa_70_1368", "209", 100).
origin("Costa_200_505", "122").
enter("Costa_200_505", "122", 0).
exit("Costa_200_505", "122", 55).
enter("Costa_200_505", "1b", 55).
exit("Costa_200_505", "1b", 115).
enter("Costa_200_505", "1", 115).
exit("Costa_200_505", "1", 150).
enter("Costa_200_505", "204a[0]", 150).
exit("Costa_200_505", "204a[0]", 270).
enter("Costa_200_505", "204b[0]", 270).
exit("Costa_200_505", "204b[0]", 275).
enter("Costa_200_505", "204[1][0]", 275).
exit("Costa_200_505", "204[1][0]", 310).
enter("Costa_200_505", "204[1][1]", 310).
exit("Costa_200_505", "204[1][1]", 345).
origin("Pepoli_11_2054", "201").
enter("Pepoli_11_2054", "201", 0).
exit("Pepoli_11_2054", "201", 135).
enter("Pepoli_11_2054", "201c", 135).
exit("Pepoli_11_2054", "201c", 170).
enter("Pepoli_11_2054", "204a[0]", 170).
exit("Pepoli_11_2054", "204a[0]", 290).
enter("Pepoli_11_2054", "124", 290).
exit("Pepoli_11_2054", "124", 335).
origin("Pepoli_11_1643", "201").
enter("Pepoli_11_1643", "201", 0).
exit("Pepoli_11_1643", "201", 135).
enter("Pepoli_11_1643", "201c", 135).
exit("Pepoli_11_1643", "201c", 170).
enter("Pepoli_11_1643", "204a[0]", 170).
exit("Pepoli_11_1643", "204a[0]", 290).
enter("Pepoli_11_1643", "124", 290).
exit("Pepoli_11_1643", "124", 335).
origin("Togliatti_10_711", "85").
enter("Togliatti_10_711", "85", 0).
exit("Togliatti_10_711", "85", 60).
enter("Togliatti_10_711", "72[0]", 60).
exit("Togliatti_10_711", "72[0]", 135).
enter("Togliatti_10_711", "72[1]", 135).
exit("Togliatti_10_711", "72[1]", 175).
enter("Togliatti_10_711", "69", 175).
exit("Togliatti_10_711", "69", 270).
enter("Togliatti_10_711", "161", 270).
exit("Togliatti_10_711", "161", 320).
enter("Togliatti_10_711", "122", 320).
exit("Togliatti_10_711", "122", 420).
enter("Togliatti_10_711", "1b", 420).
exit("Togliatti_10_711", "1b", 480).
enter("Togliatti_10_711", "1", 480).
exit("Togliatti_10_711", "1", 515).
enter("Togliatti_10_711", "204a[0]", 515).
exit("Togliatti_10_711", "204a[0]", 635).
enter("Togliatti_10_711", "204b[0]", 635).
exit("Togliatti_10_711", "204b[0]", 640).
enter("Togliatti_10_711", "204[1][0]", 640).
exit("Togliatti_10_711", "204[1][0]", 675).
enter("Togliatti_10_711", "204[1][1]", 675).
exit("Togliatti_10_711", "204[1][1]", 710).
origin("Pepoli_12_1427", "65").
enter("Pepoli_12_1427", "65", 0).
exit("Pepoli_12_1427", "65", 25).
enter("Pepoli_12_1427", "57[0]", 25).
exit("Pepoli_12_1427", "57[0]", 60).
enter("Pepoli_12_1427", "57[1]", 60).
exit("Pepoli_12_1427", "57[1]", 80).
enter("Pepoli_12_1427", "62", 80).
exit("Pepoli_12_1427", "62", 105).
enter("Pepoli_12_1427", "159", 105).
exit("Pepoli_12_1427", "159", 160).
enter("Pepoli_12_1427", "42", 160).
exit("Pepoli_12_1427", "42", 175).
enter("Pepoli_12_1427", "39", 175).
exit("Pepoli_12_1427", "39", 205).
enter("Pepoli_12_1427", "35", 205).
exit("Pepoli_12_1427", "35", 240).
enter("Pepoli_12_1427", "38", 240).
exit("Pepoli_12_1427", "38", 330).
enter("Pepoli_12_1427", "50", 330).
exit("Pepoli_12_1427", "50", 390).
enter("Pepoli_12_1427", "19", 390).
exit("Pepoli_12_1427", "19", 410).
enter("Pepoli_12_1427", "[22|59]", 410).
exit("Pepoli_12_1427", "[22|59]", 425).
enter("Pepoli_12_1427", "(53cd|53[0])", 425).
exit("Pepoli_12_1427", "(53cd|53[0])", 520).
enter("Pepoli_12_1427", "78[1][1]", 520).
exit("Pepoli_12_1427", "78[1][1]", 615).
enter("Pepoli_12_1427", "[189[0]|189[1][0]+20000|189[1][1]]", 615).
exit("Pepoli_12_1427", "[189[0]|189[1][0]+20000|189[1][1]]", 665).
enter("Pepoli_12_1427", "191", 665).
exit("Pepoli_12_1427", "191", 815).
enter("Pepoli_12_1427", "[17|71]", 815).
exit("Pepoli_12_1427", "[17|71]", 870).
enter("Pepoli_12_1427", "84", 870).
exit("Pepoli_12_1427", "84", 890).
enter("Pepoli_12_1427", "180", 890).
exit("Pepoli_12_1427", "180", 935).
origin("XXI_Aprile_7_1010", "[13|104]").
enter("XXI_Aprile_7_1010", "[13|104]", 0).
exit("XXI_Aprile_7_1010", "[13|104]", 45).
enter("XXI_Aprile_7_1010", "16", 45).
exit("XXI_Aprile_7_1010", "16", 55).
enter("XXI_Aprile_7_1010", "37", 55).
exit("XXI_Aprile_7_1010", "37", 70).
enter("XXI_Aprile_7_1010", "36", 70).
exit("XXI_Aprile_7_1010", "36", 80).
enter("XXI_Aprile_7_1010", "40", 80).
exit("XXI_Aprile_7_1010", "40", 85).
enter("XXI_Aprile_7_1010", "41", 85).
exit("XXI_Aprile_7_1010", "41", 100).
enter("XXI_Aprile_7_1010", "160", 100).
exit("XXI_Aprile_7_1010", "160", 120).
enter("XXI_Aprile_7_1010", "61", 120).
exit("XXI_Aprile_7_1010", "61", 140).
enter("XXI_Aprile_7_1010", "58[0]", 140).
exit("XXI_Aprile_7_1010", "58[0]", 150).
enter("XXI_Aprile_7_1010", "58[1]", 150).
exit("XXI_Aprile_7_1010", "58[1]", 165).
enter("XXI_Aprile_7_1010", "66", 165).
exit("XXI_Aprile_7_1010", "66", 175).
enter("XXI_Aprile_7_1010", "117", 175).
exit("XXI_Aprile_7_1010", "117", 220).
enter("XXI_Aprile_7_1010", "209", 220).
exit("XXI_Aprile_7_1010", "209", 255).
origin("Vittorio_Veneto_1_620", "224[0]").
enter("Vittorio_Veneto_1_620", "224[0]", 0).
exit("Vittorio_Veneto_1_620", "224[0]", 140).
enter("Vittorio_Veneto_1_620", "224[1]", 140).
exit("Vittorio_Veneto_1_620", "224[1]", 200).
enter("Vittorio_Veneto_1_620", "[181|18]", 200).
exit("Vittorio_Veneto_1_620", "[181|18]", 275).
enter("Vittorio_Veneto_1_620", "[17|71]", 275).
exit("Vittorio_Veneto_1_620", "[17|71]", 330).
enter("Vittorio_Veneto_1_620", "86", 330).
exit("Vittorio_Veneto_1_620", "86", 360).
origin("Pepoli_11_1964", "201").
enter("Pepoli_11_1964", "201", 0).
exit("Pepoli_11_1964", "201", 135).
enter("Pepoli_11_1964", "201c", 135).
exit("Pepoli_11_1964", "201c", 170).
enter("Pepoli_11_1964", "204a[0]", 170).
exit("Pepoli_11_1964", "204a[0]", 290).
enter("Pepoli_11_1964", "124", 290).
exit("Pepoli_11_1964", "124", 335).
origin("Pepoli_11_2052", "201").
enter("Pepoli_11_2052", "201", 0).
exit("Pepoli_11_2052", "201", 135).
enter("Pepoli_11_2052", "201c", 135).
exit("Pepoli_11_2052", "201c", 170).
enter("Pepoli_11_2052", "204a[0]", 170).
exit("Pepoli_11_2052", "204a[0]", 290).
enter("Pepoli_11_2052", "124", 290).
exit("Pepoli_11_2052", "124", 335).
origin("Pepoli_12_939", "[68|11]").
enter("Pepoli_12_939", "[68|11]", 0).
exit("Pepoli_12_939", "[68|11]", 80).
enter("Pepoli_12_939", "84", 80).
exit("Pepoli_12_939", "84", 100).
enter("Pepoli_12_939", "180", 100).
exit("Pepoli_12_939", "180", 195).
origin("Pepoli_3_1402", "65").
enter("Pepoli_3_1402", "65", 0).
exit("Pepoli_3_1402", "65", 70).
enter("Pepoli_3_1402", "57[0]", 70).
exit("Pepoli_3_1402", "57[0]", 170).
enter("Pepoli_3_1402", "57[1]", 170).
exit("Pepoli_3_1402", "57[1]", 190).
enter("Pepoli_3_1402", "62", 190).
exit("Pepoli_3_1402", "62", 215).
enter("Pepoli_3_1402", "159", 215).
exit("Pepoli_3_1402", "159", 245).
enter("Pepoli_3_1402", "42", 245).
exit("Pepoli_3_1402", "42", 255).
enter("Pepoli_3_1402", "39", 255).
exit("Pepoli_3_1402", "39", 335).
enter("Pepoli_3_1402", "35", 335).
exit("Pepoli_3_1402", "35", 390).
enter("Pepoli_3_1402", "38", 390).
exit("Pepoli_3_1402", "38", 425).
enter("Pepoli_3_1402", "33", 425).
exit("Pepoli_3_1402", "33", 435).
enter("Pepoli_3_1402", "10", 435).
exit("Pepoli_3_1402", "10", 455).
origin("Pepoli_11_1871", "201").
enter("Pepoli_11_1871", "201", 0).
exit("Pepoli_11_1871", "201", 135).
enter("Pepoli_11_1871", "201c", 135).
exit("Pepoli_11_1871", "201c", 170).
enter("Pepoli_11_1871", "204a[0]", 170).
exit("Pepoli_11_1871", "204a[0]", 290).
enter("Pepoli_11_1871", "124", 290).
exit("Pepoli_11_1871", "124", 335).
origin("Vittorio_Veneto_1_591", "224[1]").
enter("Vittorio_Veneto_1_591", "224[1]", 0).
exit("Vittorio_Veneto_1_591", "224[1]", 60).
enter("Vittorio_Veneto_1_591", "[181|18]", 60).
exit("Vittorio_Veneto_1_591", "[181|18]", 135).
enter("Vittorio_Veneto_1_591", "[17|71]", 135).
exit("Vittorio_Veneto_1_591", "[17|71]", 190).
enter("Vittorio_Veneto_1_591", "86", 190).
exit("Vittorio_Veneto_1_591", "86", 220).
origin("Pepoli_3_1122", "38").
enter("Pepoli_3_1122", "38", 0).
exit("Pepoli_3_1122", "38", 60).
enter("Pepoli_3_1122", "15", 60).
exit("Pepoli_3_1122", "15", 135).
enter("Pepoli_3_1122", "14", 135).
exit("Pepoli_3_1122", "14", 175).
origin("XXI_Aprile_113_823", "201").
enter("XXI_Aprile_113_823", "201", 0).
exit("XXI_Aprile_113_823", "201", 60).
enter("XXI_Aprile_113_823", "201c", 60).
exit("XXI_Aprile_113_823", "201c", 445).
enter("XXI_Aprile_113_823", "204a[0]", 445).
exit("XXI_Aprile_113_823", "204a[0]", 1180).
enter("XXI_Aprile_113_823", "124", 1180).
exit("XXI_Aprile_113_823", "124", 2920).
origin("Pepoli_11_1011", "201").
enter("Pepoli_11_1011", "201", 0).
exit("Pepoli_11_1011", "201", 135).
enter("Pepoli_11_1011", "201c", 135).
exit("Pepoli_11_1011", "201c", 170).
enter("Pepoli_11_1011", "204a[0]", 170).
exit("Pepoli_11_1011", "204a[0]", 290).
enter("Pepoli_11_1011", "124", 290).
exit("Pepoli_11_1011", "124", 335).
origin("Pepoli_2_1571", "[210|43[0]]").
enter("Pepoli_2_1571", "[210|43[0]]", 0).
exit("Pepoli_2_1571", "[210|43[0]]", 185).
enter("Pepoli_2_1571", "118", 185).
exit("Pepoli_2_1571", "118", 235).
enter("Pepoli_2_1571", "65", 235).
exit("Pepoli_2_1571", "65", 295).
enter("Pepoli_2_1571", "57[0]", 295).
exit("Pepoli_2_1571", "57[0]", 320).
enter("Pepoli_2_1571", "57[1]", 320).
exit("Pepoli_2_1571", "57[1]", 345).
enter("Pepoli_2_1571", "62", 345).
exit("Pepoli_2_1571", "62", 445).
enter("Pepoli_2_1571", "159", 445).
exit("Pepoli_2_1571", "159", 510).
enter("Pepoli_2_1571", "42", 510).
exit("Pepoli_2_1571", "42", 530).
enter("Pepoli_2_1571", "39", 530).
exit("Pepoli_2_1571", "39", 540).
enter("Pepoli_2_1571", "35", 540).
exit("Pepoli_2_1571", "35", 575).
enter("Pepoli_2_1571", "38", 575).
exit("Pepoli_2_1571", "38", 650).
enter("Pepoli_2_1571", "15", 650).
exit("Pepoli_2_1571", "15", 725).
enter("Pepoli_2_1571", "24", 725).
exit("Pepoli_2_1571", "24", 740).
enter("Pepoli_2_1571", "[22|59]", 740).
exit("Pepoli_2_1571", "[22|59]", 795).
enter("Pepoli_2_1571", "(53cd|53[0]|53[1][0]|53[1][1][0]|77[1][0])", 795).
exit("Pepoli_2_1571", "(53cd|53[0]|53[1][0]|53[1][1][0]|77[1][0])", 800).
enter("Pepoli_2_1571", "77[1][1]", 800).
exit("Pepoli_2_1571", "77[1][1]", 890).
origin("Pepoli_3_978", "15").
enter("Pepoli_3_978", "15", 0).
exit("Pepoli_3_978", "15", 75).
enter("Pepoli_3_978", "14", 75).
exit("Pepoli_3_978", "14", 115).
origin("XXI_Aprile_7_926", "117").
enter("XXI_Aprile_7_926", "117", 0).
exit("XXI_Aprile_7_926", "117", 50).
enter("XXI_Aprile_7_926", "209", 50).
exit("XXI_Aprile_7_926", "209", 90).
origin("Pepoli_11_1760", "43[1]").
enter("Pepoli_11_1760", "43[1]", 0).
exit("Pepoli_11_1760", "43[1]", 70).
enter("Pepoli_11_1760", "201", 70).
exit("Pepoli_11_1760", "201", 205).
enter("Pepoli_11_1760", "201c", 205).
exit("Pepoli_11_1760", "201c", 240).
enter("Pepoli_11_1760", "204a[0]", 240).
exit("Pepoli_11_1760", "204a[0]", 360).
enter("Pepoli_11_1760", "124", 360).
exit("Pepoli_11_1760", "124", 405).
origin("Vittorio_Veneto_82_628", "224[0]").
enter("Vittorio_Veneto_82_628", "224[0]", 0).
exit("Vittorio_Veneto_82_628", "224[0]", 140).
enter("Vittorio_Veneto_82_628", "224[1]", 140).
exit("Vittorio_Veneto_82_628", "224[1]", 200).
enter("Vittorio_Veneto_82_628", "[181|18]", 200).
exit("Vittorio_Veneto_82_628", "[181|18]", 275).
enter("Vittorio_Veneto_82_628", "69", 275).
exit("Vittorio_Veneto_82_628", "69", 370).
enter("Vittorio_Veneto_82_628", "161", 370).
exit("Vittorio_Veneto_82_628", "161", 395).
enter("Vittorio_Veneto_82_628", "122", 395).
exit("Vittorio_Veneto_82_628", "122", 450).
enter("Vittorio_Veneto_82_628", "[3|2]", 450).
exit("Vittorio_Veneto_82_628", "[3|2]", 485).
enter("Vittorio_Veneto_82_628", "[202|34]", 485).
exit("Vittorio_Veneto_82_628", "[202|34]", 535).
enter("Vittorio_Veneto_82_628", "134", 535).
exit("Vittorio_Veneto_82_628", "134", 545).
origin("Costa_91_1119", "161").
enter("Costa_91_1119", "161", 0).
exit("Costa_91_1119", "161", 150).
enter("Costa_91_1119", "122", 150).
exit("Costa_91_1119", "122", 695).
enter("Costa_91_1119", "1b", 695).
exit("Costa_91_1119", "1b", 1060).
enter("Costa_91_1119", "1", 1060).
exit("Costa_91_1119", "1", 1310).
enter("Costa_91_1119", "204a[0]", 1310).
exit("Costa_91_1119", "204a[0]", 1445).
enter("Costa_91_1119", "204b[0]", 1445).
exit("Costa_91_1119", "204b[0]", 1460).
enter("Costa_91_1119", "54", 1460).
exit("Costa_91_1119", "54", 1630).
origin("Costa_200_240", "204a[0]").
enter("Costa_200_240", "204a[0]", 0).
exit("Costa_200_240", "204a[0]", 120).
enter("Costa_200_240", "204b[0]", 120).
exit("Costa_200_240", "204b[0]", 125).
enter("Costa_200_240", "204[1][0]", 125).
exit("Costa_200_240", "204[1][0]", 160).
enter("Costa_200_240", "204[1][1]", 160).
exit("Costa_200_240", "204[1][1]", 195).
origin("XXI_Aprile_7_758", "[109[0]|109[1][0]+20003|109[1][1]]").
enter("XXI_Aprile_7_758", "[109[0]|109[1][0]+20003|109[1][1]]", 0).
exit("XXI_Aprile_7_758", "[109[0]|109[1][0]+20003|109[1][1]]", 35).
enter("XXI_Aprile_7_758", "[116|46]", 35).
exit("XXI_Aprile_7_758", "[116|46]", 130).
enter("XXI_Aprile_7_758", "113", 130).
exit("XXI_Aprile_7_758", "113", 180).
enter("XXI_Aprile_7_758", "209", 180).
exit("XXI_Aprile_7_758", "209", 230).
origin("Pepoli_3_1140", "35").
enter("Pepoli_3_1140", "35", 0).
exit("Pepoli_3_1140", "35", 55).
enter("Pepoli_3_1140", "38", 55).
exit("Pepoli_3_1140", "38", 115).
enter("Pepoli_3_1140", "15", 115).
exit("Pepoli_3_1140", "15", 190).
enter("Pepoli_3_1140", "14", 190).
exit("Pepoli_3_1140", "14", 230).
origin("Vittorio_Veneto_1_606", "224[0]").
enter("Vittorio_Veneto_1_606", "224[0]", 0).
exit("Vittorio_Veneto_1_606", "224[0]", 75).
enter("Vittorio_Veneto_1_606", "224[1]", 75).
exit("Vittorio_Veneto_1_606", "224[1]", 135).
enter("Vittorio_Veneto_1_606", "[181|18]", 135).
exit("Vittorio_Veneto_1_606", "[181|18]", 195).
enter("Vittorio_Veneto_1_606", "[17|71]", 195).
exit("Vittorio_Veneto_1_606", "[17|71]", 265).
enter("Vittorio_Veneto_1_606", "86", 265).
exit("Vittorio_Veneto_1_606", "86", 295).
origin("Vittorio_Veneto_1_551", "86").
enter("Vittorio_Veneto_1_551", "86", 0).
exit("Vittorio_Veneto_1_551", "86", 30).
origin("Pepoli_11_1739", "201").
enter("Pepoli_11_1739", "201", 0).
exit("Pepoli_11_1739", "201", 135).
enter("Pepoli_11_1739", "201c", 135).
exit("Pepoli_11_1739", "201c", 170).
enter("Pepoli_11_1739", "204a[0]", 170).
exit("Pepoli_11_1739", "204a[0]", 290).
enter("Pepoli_11_1739", "124", 290).
exit("Pepoli_11_1739", "124", 335).
origin("Pepoli_3_1443", "118").
enter("Pepoli_3_1443", "118", 0).
exit("Pepoli_3_1443", "118", 120).
enter("Pepoli_3_1443", "65", 120).
exit("Pepoli_3_1443", "65", 160).
enter("Pepoli_3_1443", "57[0]", 160).
exit("Pepoli_3_1443", "57[0]", 195).
enter("Pepoli_3_1443", "57[1]", 195).
exit("Pepoli_3_1443", "57[1]", 235).
enter("Pepoli_3_1443", "62", 235).
exit("Pepoli_3_1443", "62", 355).
enter("Pepoli_3_1443", "159", 355).
exit("Pepoli_3_1443", "159", 410).
enter("Pepoli_3_1443", "42", 410).
exit("Pepoli_3_1443", "42", 465).
enter("Pepoli_3_1443", "39", 465).
exit("Pepoli_3_1443", "39", 470).
enter("Pepoli_3_1443", "35", 470).
exit("Pepoli_3_1443", "35", 540).
enter("Pepoli_3_1443", "38", 540).
exit("Pepoli_3_1443", "38", 570).
enter("Pepoli_3_1443", "15", 570).
exit("Pepoli_3_1443", "15", 620).
enter("Pepoli_3_1443", "14", 620).
exit("Pepoli_3_1443", "14", 630).
origin("Vittorio_Veneto_2_587", "224[1]").
enter("Vittorio_Veneto_2_587", "224[1]", 0).
exit("Vittorio_Veneto_2_587", "224[1]", 60).
enter("Vittorio_Veneto_2_587", "[181|18]", 60).
exit("Vittorio_Veneto_2_587", "[181|18]", 135).
enter("Vittorio_Veneto_2_587", "[17|71]", 135).
exit("Vittorio_Veneto_2_587", "[17|71]", 190).
enter("Vittorio_Veneto_2_587", "67", 190).
exit("Vittorio_Veneto_2_587", "67", 200).
enter("Vittorio_Veneto_2_587", "[80|127]", 200).
exit("Vittorio_Veneto_2_587", "[80|127]", 220).
enter("Vittorio_Veneto_2_587", "(77[1][0])", 220).
exit("Vittorio_Veneto_2_587", "(77[1][0])", 235).
enter("Vittorio_Veneto_2_587", "77[1][1]", 235).
exit("Vittorio_Veneto_2_587", "77[1][1]", 275).
origin("Costa_11_827", "122").
enter("Costa_11_827", "122", 0).
exit("Costa_11_827", "122", 100).
enter("Costa_11_827", "1b", 100).
exit("Costa_11_827", "1b", 160).
enter("Costa_11_827", "1", 160).
exit("Costa_11_827", "1", 195).
enter("Costa_11_827", "204a[0]", 195).
exit("Costa_11_827", "204a[0]", 315).
enter("Costa_11_827", "124", 315).
exit("Costa_11_827", "124", 360).
origin("Costa_200_1230", "161").
enter("Costa_200_1230", "161", 0).
exit("Costa_200_1230", "161", 50).
enter("Costa_200_1230", "122", 50).
exit("Costa_200_1230", "122", 105).
enter("Costa_200_1230", "1b", 105).
exit("Costa_200_1230", "1b", 165).
enter("Costa_200_1230", "1", 165).
exit("Costa_200_1230", "1", 200).
enter("Costa_200_1230", "204a[0]", 200).
exit("Costa_200_1230", "204a[0]", 320).
enter("Costa_200_1230", "204b[0]", 320).
exit("Costa_200_1230", "204b[0]", 325).
enter("Costa_200_1230", "204[1][0]", 325).
exit("Costa_200_1230", "204[1][0]", 360).
enter("Costa_200_1230", "204[1][1]", 360).
exit("Costa_200_1230", "204[1][1]", 395).
origin("Pepoli_11_1659", "204a[0]").
enter("Pepoli_11_1659", "204a[0]", 0).
exit("Pepoli_11_1659", "204a[0]", 120).
enter("Pepoli_11_1659", "124", 120).
exit("Pepoli_11_1659", "124", 165).
origin("Vittorio_Veneto_1_598", "224[1]").
enter("Vittorio_Veneto_1_598", "224[1]", 0).
exit("Vittorio_Veneto_1_598", "224[1]", 60).
enter("Vittorio_Veneto_1_598", "[181|18]", 60).
exit("Vittorio_Veneto_1_598", "[181|18]", 135).
enter("Vittorio_Veneto_1_598", "[17|71]", 135).
exit("Vittorio_Veneto_1_598", "[17|71]", 190).
enter("Vittorio_Veneto_1_598", "86", 190).
exit("Vittorio_Veneto_1_598", "86", 220).
origin("Costa_200_1362", "69").
enter("Costa_200_1362", "69", 0).
exit("Costa_200_1362", "69", 95).
enter("Costa_200_1362", "161", 95).
exit("Costa_200_1362", "161", 145).
enter("Costa_200_1362", "122", 145).
exit("Costa_200_1362", "122", 245).
enter("Costa_200_1362", "1b", 245).
exit("Costa_200_1362", "1b", 305).
enter("Costa_200_1362", "1", 305).
exit("Costa_200_1362", "1", 340).
enter("Costa_200_1362", "204a[0]", 340).
exit("Costa_200_1362", "204a[0]", 460).
enter("Costa_200_1362", "204b[0]", 460).
exit("Costa_200_1362", "204b[0]", 465).
enter("Costa_200_1362", "204[1][0]", 465).
exit("Costa_200_1362", "204[1][0]", 500).
enter("Costa_200_1362", "204[1][1]", 500).
exit("Costa_200_1362", "204[1][1]", 535).
origin("Vittorio_Veneto_1_621", "224[0]").
enter("Vittorio_Veneto_1_621", "224[0]", 0).
exit("Vittorio_Veneto_1_621", "224[0]", 140).
enter("Vittorio_Veneto_1_621", "224[1]", 140).
exit("Vittorio_Veneto_1_621", "224[1]", 200).
enter("Vittorio_Veneto_1_621", "[181|18]", 200).
exit("Vittorio_Veneto_1_621", "[181|18]", 275).
enter("Vittorio_Veneto_1_621", "[17|71]", 275).
exit("Vittorio_Veneto_1_621", "[17|71]", 330).
enter("Vittorio_Veneto_1_621", "86", 330).
exit("Vittorio_Veneto_1_621", "86", 360).
origin("Togliatti_9_703", "85").
enter("Togliatti_9_703", "85", 0).
exit("Togliatti_9_703", "85", 60).
enter("Togliatti_9_703", "72[0]", 60).
exit("Togliatti_9_703", "72[0]", 135).
enter("Togliatti_9_703", "72[1]", 135).
exit("Togliatti_9_703", "72[1]", 175).
enter("Togliatti_9_703", "69", 175).
exit("Togliatti_9_703", "69", 270).
enter("Togliatti_9_703", "161", 270).
exit("Togliatti_9_703", "161", 320).
enter("Togliatti_9_703", "122", 320).
exit("Togliatti_9_703", "122", 420).
enter("Togliatti_9_703", "1b", 420).
exit("Togliatti_9_703", "1b", 480).
enter("Togliatti_9_703", "1", 480).
exit("Togliatti_9_703", "1", 515).
enter("Togliatti_9_703", "204a[0]", 515).
exit("Togliatti_9_703", "204a[0]", 635).
enter("Togliatti_9_703", "204b[0]", 635).
exit("Togliatti_9_703", "204b[0]", 640).
enter("Togliatti_9_703", "54", 640).
exit("Togliatti_9_703", "54", 665).
origin("Pepoli_11_1566", "201").
enter("Pepoli_11_1566", "201", 0).
exit("Pepoli_11_1566", "201", 205).
enter("Pepoli_11_1566", "201c", 205).
exit("Pepoli_11_1566", "201c", 635).
enter("Pepoli_11_1566", "204a[0]", 635).
exit("Pepoli_11_1566", "204a[0]", 755).
enter("Pepoli_11_1566", "124", 755).
exit("Pepoli_11_1566", "124", 865).
origin("XXI_Aprile_94_898", "161").
enter("XXI_Aprile_94_898", "161", 0).
exit("XXI_Aprile_94_898", "161", 50).
enter("XXI_Aprile_94_898", "122", 50).
exit("XXI_Aprile_94_898", "122", 1705).
enter("XXI_Aprile_94_898", "1b", 1705).
exit("XXI_Aprile_94_898", "1b", 2425).
enter("XXI_Aprile_94_898", "1", 2425).
exit("XXI_Aprile_94_898", "1", 2535).
enter("XXI_Aprile_94_898", "204a[0]", 2535).
exit("XXI_Aprile_94_898", "204a[0]", 2610).
enter("XXI_Aprile_94_898", "204b[0]", 2610).
exit("XXI_Aprile_94_898", "204b[0]", 2620).
enter("XXI_Aprile_94_898", "54", 2620).
exit("XXI_Aprile_94_898", "54", 2740).
origin("Vittorio_Veneto_2_573", "[181|18]").
enter("Vittorio_Veneto_2_573", "[181|18]", 0).
exit("Vittorio_Veneto_2_573", "[181|18]", 60).
enter("Vittorio_Veneto_2_573", "[17|71]", 60).
exit("Vittorio_Veneto_2_573", "[17|71]", 115).
enter("Vittorio_Veneto_2_573", "67", 115).
exit("Vittorio_Veneto_2_573", "67", 125).
enter("Vittorio_Veneto_2_573", "[80|127]", 125).
exit("Vittorio_Veneto_2_573", "[80|127]", 190).
enter("Vittorio_Veneto_2_573", "(77[1][0])", 190).
exit("Vittorio_Veneto_2_573", "(77[1][0])", 200).
enter("Vittorio_Veneto_2_573", "77[1][1]", 200).
exit("Vittorio_Veneto_2_573", "77[1][1]", 240).
origin("Vittorio_Veneto_10_672", "224[0]").
enter("Vittorio_Veneto_10_672", "224[0]", 0).
exit("Vittorio_Veneto_10_672", "224[0]", 140).
enter("Vittorio_Veneto_10_672", "224[1]", 140).
exit("Vittorio_Veneto_10_672", "224[1]", 200).
enter("Vittorio_Veneto_10_672", "[181|18]", 200).
exit("Vittorio_Veneto_10_672", "[181|18]", 275).
enter("Vittorio_Veneto_10_672", "69", 275).
exit("Vittorio_Veneto_10_672", "69", 370).
enter("Vittorio_Veneto_10_672", "161", 370).
exit("Vittorio_Veneto_10_672", "161", 395).
enter("Vittorio_Veneto_10_672", "122", 395).
exit("Vittorio_Veneto_10_672", "122", 495).
enter("Vittorio_Veneto_10_672", "1b", 495).
exit("Vittorio_Veneto_10_672", "1b", 555).
enter("Vittorio_Veneto_10_672", "1", 555).
exit("Vittorio_Veneto_10_672", "1", 590).
enter("Vittorio_Veneto_10_672", "204a[0]", 590).
exit("Vittorio_Veneto_10_672", "204a[0]", 710).
enter("Vittorio_Veneto_10_672", "204b[0]", 710).
exit("Vittorio_Veneto_10_672", "204b[0]", 715).
enter("Vittorio_Veneto_10_672", "204[1][0]", 715).
exit("Vittorio_Veneto_10_672", "204[1][0]", 750).
enter("Vittorio_Veneto_10_672", "204[1][1]", 750).
exit("Vittorio_Veneto_10_672", "204[1][1]", 785).
origin("Togliatti_10_731", "85").
enter("Togliatti_10_731", "85", 0).
exit("Togliatti_10_731", "85", 70).
enter("Togliatti_10_731", "72[0]", 70).
exit("Togliatti_10_731", "72[0]", 145).
enter("Togliatti_10_731", "72[1]", 145).
exit("Togliatti_10_731", "72[1]", 185).
enter("Togliatti_10_731", "69", 185).
exit("Togliatti_10_731", "69", 280).
enter("Togliatti_10_731", "161", 280).
exit("Togliatti_10_731", "161", 305).
enter("Togliatti_10_731", "122", 305).
exit("Togliatti_10_731", "122", 360).
enter("Togliatti_10_731", "1b", 360).
exit("Togliatti_10_731", "1b", 420).
enter("Togliatti_10_731", "1", 420).
exit("Togliatti_10_731", "1", 455).
enter("Togliatti_10_731", "204a[0]", 455).
exit("Togliatti_10_731", "204a[0]", 575).
enter("Togliatti_10_731", "204b[0]", 575).
exit("Togliatti_10_731", "204b[0]", 580).
enter("Togliatti_10_731", "204[1][0]", 580).
exit("Togliatti_10_731", "204[1][0]", 615).
enter("Togliatti_10_731", "204[1][1]", 615).
exit("Togliatti_10_731", "204[1][1]", 650).
origin("Togliatti_11_692", "85").
enter("Togliatti_11_692", "85", 0).
exit("Togliatti_11_692", "85", 60).
enter("Togliatti_11_692", "72[0]", 60).
exit("Togliatti_11_692", "72[0]", 135).
enter("Togliatti_11_692", "72[1]", 135).
exit("Togliatti_11_692", "72[1]", 175).
enter("Togliatti_11_692", "69", 175).
exit("Togliatti_11_692", "69", 270).
enter("Togliatti_11_692", "161", 270).
exit("Togliatti_11_692", "161", 320).
enter("Togliatti_11_692", "122", 320).
exit("Togliatti_11_692", "122", 420).
enter("Togliatti_11_692", "1b", 420).
exit("Togliatti_11_692", "1b", 480).
enter("Togliatti_11_692", "1", 480).
exit("Togliatti_11_692", "1", 515).
enter("Togliatti_11_692", "204a[0]", 515).
exit("Togliatti_11_692", "204a[0]", 635).
enter("Togliatti_11_692", "124", 635).
exit("Togliatti_11_692", "124", 680).
origin("Pepoli_12_1442", "65").
enter("Pepoli_12_1442", "65", 0).
exit("Pepoli_12_1442", "65", 65).
enter("Pepoli_12_1442", "57[0]", 65).
exit("Pepoli_12_1442", "57[0]", 80).
enter("Pepoli_12_1442", "57[1]", 80).
exit("Pepoli_12_1442", "57[1]", 195).
enter("Pepoli_12_1442", "62", 195).
exit("Pepoli_12_1442", "62", 220).
enter("Pepoli_12_1442", "159", 220).
exit("Pepoli_12_1442", "159", 325).
enter("Pepoli_12_1442", "42", 325).
exit("Pepoli_12_1442", "42", 370).
enter("Pepoli_12_1442", "39", 370).
exit("Pepoli_12_1442", "39", 410).
enter("Pepoli_12_1442", "35", 410).
exit("Pepoli_12_1442", "35", 455).
enter("Pepoli_12_1442", "38", 455).
exit("Pepoli_12_1442", "38", 560).
enter("Pepoli_12_1442", "50", 560).
exit("Pepoli_12_1442", "50", 585).
enter("Pepoli_12_1442", "19", 585).
exit("Pepoli_12_1442", "19", 625).
enter("Pepoli_12_1442", "[22|59]", 625).
exit("Pepoli_12_1442", "[22|59]", 660).
enter("Pepoli_12_1442", "(53cd|53[0]|53[1][0])", 660).
exit("Pepoli_12_1442", "(53cd|53[0]|53[1][0])", 685).
enter("Pepoli_12_1442", "79", 685).
exit("Pepoli_12_1442", "79", 705).
enter("Pepoli_12_1442", "[68|11]", 705).
exit("Pepoli_12_1442", "[68|11]", 750).
enter("Pepoli_12_1442", "84", 750).
exit("Pepoli_12_1442", "84", 770).
enter("Pepoli_12_1442", "180", 770).
exit("Pepoli_12_1442", "180", 820).
origin("Costa_200_1262", "204a[0]").
enter("Costa_200_1262", "204a[0]", 0).
exit("Costa_200_1262", "204a[0]", 120).
enter("Costa_200_1262", "204b[0]", 120).
exit("Costa_200_1262", "204b[0]", 125).
enter("Costa_200_1262", "204[1][0]", 125).
exit("Costa_200_1262", "204[1][0]", 160).
enter("Costa_200_1262", "204[1][1]", 160).
exit("Costa_200_1262", "204[1][1]", 195).
origin("Pepoli_2_1390", "57[0]").
enter("Pepoli_2_1390", "57[0]", 0).
exit("Pepoli_2_1390", "57[0]", 25).
enter("Pepoli_2_1390", "57[1]", 25).
exit("Pepoli_2_1390", "57[1]", 60).
enter("Pepoli_2_1390", "62", 60).
exit("Pepoli_2_1390", "62", 85).
enter("Pepoli_2_1390", "159", 85).
exit("Pepoli_2_1390", "159", 175).
enter("Pepoli_2_1390", "42", 175).
exit("Pepoli_2_1390", "42", 240).
enter("Pepoli_2_1390", "39", 240).
exit("Pepoli_2_1390", "39", 320).
enter("Pepoli_2_1390", "35", 320).
exit("Pepoli_2_1390", "35", 375).
enter("Pepoli_2_1390", "38", 375).
exit("Pepoli_2_1390", "38", 435).
enter("Pepoli_2_1390", "15", 435).
exit("Pepoli_2_1390", "15", 495).
enter("Pepoli_2_1390", "24", 495).
exit("Pepoli_2_1390", "24", 510).
enter("Pepoli_2_1390", "[22|59]", 510).
exit("Pepoli_2_1390", "[22|59]", 530).
enter("Pepoli_2_1390", "(53cd|53[0]|53[1][0]|53[1][1][0]|77[1][0])", 530).
exit("Pepoli_2_1390", "(53cd|53[0]|53[1][0]|53[1][1][0]|77[1][0])", 590).
enter("Pepoli_2_1390", "77[1][1]", 590).
exit("Pepoli_2_1390", "77[1][1]", 635).
origin("XXI_Aprile_93_359", "122").
enter("XXI_Aprile_93_359", "122", 0).
exit("XXI_Aprile_93_359", "122", 55).
enter("XXI_Aprile_93_359", "1b", 55).
exit("XXI_Aprile_93_359", "1b", 115).
enter("XXI_Aprile_93_359", "1", 115).
exit("XXI_Aprile_93_359", "1", 150).
enter("XXI_Aprile_93_359", "204a[0]", 150).
exit("XXI_Aprile_93_359", "204a[0]", 270).
enter("XXI_Aprile_93_359", "204b[0]", 270).
exit("XXI_Aprile_93_359", "204b[0]", 275).
enter("XXI_Aprile_93_359", "54", 275).
exit("XXI_Aprile_93_359", "54", 300).
origin("Pepoli_11_2042", "201").
enter("Pepoli_11_2042", "201", 0).
exit("Pepoli_11_2042", "201", 135).
enter("Pepoli_11_2042", "201c", 135).
exit("Pepoli_11_2042", "201c", 170).
enter("Pepoli_11_2042", "204a[0]", 170).
exit("Pepoli_11_2042", "204a[0]", 290).
enter("Pepoli_11_2042", "124", 290).
exit("Pepoli_11_2042", "124", 335).
origin("Pepoli_2_972", "19").
enter("Pepoli_2_972", "19", 0).
exit("Pepoli_2_972", "19", 35).
enter("Pepoli_2_972", "[22|59]", 35).
exit("Pepoli_2_972", "[22|59]", 105).
enter("Pepoli_2_972", "(53cd|53[0]|53[1][0]|53[1][1][0]|77[1][0])", 105).
exit("Pepoli_2_972", "(53cd|53[0]|53[1][0]|53[1][1][0]|77[1][0])", 115).
enter("Pepoli_2_972", "77[1][1]", 115).
exit("Pepoli_2_972", "77[1][1]", 175).
origin("Pepoli_3_1148", "35").
enter("Pepoli_3_1148", "35", 0).
exit("Pepoli_3_1148", "35", 55).
enter("Pepoli_3_1148", "38", 55).
exit("Pepoli_3_1148", "38", 115).
enter("Pepoli_3_1148", "15", 115).
exit("Pepoli_3_1148", "15", 190).
enter("Pepoli_3_1148", "14", 190).
exit("Pepoli_3_1148", "14", 230).
origin("Pepoli_3_1177", "39").
enter("Pepoli_3_1177", "39", 0).
exit("Pepoli_3_1177", "39", 20).
enter("Pepoli_3_1177", "35", 20).
exit("Pepoli_3_1177", "35", 75).
enter("Pepoli_3_1177", "38", 75).
exit("Pepoli_3_1177", "38", 135).
enter("Pepoli_3_1177", "15", 135).
exit("Pepoli_3_1177", "15", 210).
enter("Pepoli_3_1177", "14", 210).
exit("Pepoli_3_1177", "14", 250).
origin("Vittorio_Veneto_10_656", "224[0]").
enter("Vittorio_Veneto_10_656", "224[0]", 0).
exit("Vittorio_Veneto_10_656", "224[0]", 140).
enter("Vittorio_Veneto_10_656", "224[1]", 140).
exit("Vittorio_Veneto_10_656", "224[1]", 200).
enter("Vittorio_Veneto_10_656", "[181|18]", 200).
exit("Vittorio_Veneto_10_656", "[181|18]", 275).
enter("Vittorio_Veneto_10_656", "69", 275).
exit("Vittorio_Veneto_10_656", "69", 370).
enter("Vittorio_Veneto_10_656", "161", 370).
exit("Vittorio_Veneto_10_656", "161", 395).
enter("Vittorio_Veneto_10_656", "122", 395).
exit("Vittorio_Veneto_10_656", "122", 450).
enter("Vittorio_Veneto_10_656", "1b", 450).
exit("Vittorio_Veneto_10_656", "1b", 510).
enter("Vittorio_Veneto_10_656", "1", 510).
exit("Vittorio_Veneto_10_656", "1", 545).
enter("Vittorio_Veneto_10_656", "204a[0]", 545).
exit("Vittorio_Veneto_10_656", "204a[0]", 665).
enter("Vittorio_Veneto_10_656", "204b[0]", 665).
exit("Vittorio_Veneto_10_656", "204b[0]", 670).
enter("Vittorio_Veneto_10_656", "204[1][0]", 670).
exit("Vittorio_Veneto_10_656", "204[1][0]", 705).
enter("Vittorio_Veneto_10_656", "204[1][1]", 705).
exit("Vittorio_Veneto_10_656", "204[1][1]", 740).
origin("Togliatti_9_466", "122").
enter("Togliatti_9_466", "122", 0).
exit("Togliatti_9_466", "122", 55).
enter("Togliatti_9_466", "1b", 55).
exit("Togliatti_9_466", "1b", 115).
enter("Togliatti_9_466", "1", 115).
exit("Togliatti_9_466", "1", 150).
enter("Togliatti_9_466", "204a[0]", 150).
exit("Togliatti_9_466", "204a[0]", 270).
enter("Togliatti_9_466", "204b[0]", 270).
exit("Togliatti_9_466", "204b[0]", 275).
enter("Togliatti_9_466", "54", 275).
exit("Togliatti_9_466", "54", 300).
origin("Pepoli_1_1359", "159").
enter("Pepoli_1_1359", "159", 0).
exit("Pepoli_1_1359", "159", 55).
enter("Pepoli_1_1359", "42", 55).
exit("Pepoli_1_1359", "42", 255).
enter("Pepoli_1_1359", "39", 255).
exit("Pepoli_1_1359", "39", 295).
enter("Pepoli_1_1359", "35", 295).
exit("Pepoli_1_1359", "35", 340).
enter("Pepoli_1_1359", "38", 340).
exit("Pepoli_1_1359", "38", 415).
enter("Pepoli_1_1359", "15", 415).
exit("Pepoli_1_1359", "15", 460).
enter("Pepoli_1_1359", "24", 460).
exit("Pepoli_1_1359", "24", 490).
enter("Pepoli_1_1359", "[22|59]", 490).
exit("Pepoli_1_1359", "[22|59]", 515).
enter("Pepoli_1_1359", "(53cd|53[0])", 515).
exit("Pepoli_1_1359", "(53cd|53[0])", 540).
enter("Pepoli_1_1359", "78[1][1]", 540).
exit("Pepoli_1_1359", "78[1][1]", 570).
enter("Pepoli_1_1359", "[189[0]|189[1][0]+20000|189[1][1]]", 570).
exit("Pepoli_1_1359", "[189[0]|189[1][0]+20000|189[1][1]]", 620).
enter("Pepoli_1_1359", "191", 620).
exit("Pepoli_1_1359", "191", 665).
enter("Pepoli_1_1359", "[17|71]", 665).
exit("Pepoli_1_1359", "[17|71]", 720).
enter("Pepoli_1_1359", "86", 720).
exit("Pepoli_1_1359", "86", 1300).
origin("Pepoli_11_1938", "201").
enter("Pepoli_11_1938", "201", 0).
exit("Pepoli_11_1938", "201", 135).
enter("Pepoli_11_1938", "201c", 135).
exit("Pepoli_11_1938", "201c", 170).
enter("Pepoli_11_1938", "204a[0]", 170).
exit("Pepoli_11_1938", "204a[0]", 290).
enter("Pepoli_11_1938", "124", 290).
exit("Pepoli_11_1938", "124", 335).
origin("XXI_Aprile_93_838", "69").
enter("XXI_Aprile_93_838", "69", 0).
exit("XXI_Aprile_93_838", "69", 85).
enter("XXI_Aprile_93_838", "161", 85).
exit("XXI_Aprile_93_838", "161", 145).
enter("XXI_Aprile_93_838", "122", 145).
exit("XXI_Aprile_93_838", "122", 1560).
enter("XXI_Aprile_93_838", "1b", 1560).
exit("XXI_Aprile_93_838", "1b", 1605).
enter("XXI_Aprile_93_838", "1", 1605).
exit("XXI_Aprile_93_838", "1", 2430).
enter("XXI_Aprile_93_838", "204a[0]", 2430).
exit("XXI_Aprile_93_838", "204a[0]", 2550).
enter("XXI_Aprile_93_838", "204b[0]", 2550).
exit("XXI_Aprile_93_838", "204b[0]", 2565).
enter("XXI_Aprile_93_838", "54", 2565).
exit("XXI_Aprile_93_838", "54", 2655).
origin("XXI_Aprile_5_881", "[89[0]|20002+89[1][0]|89[1][1]]").
enter("XXI_Aprile_5_881", "[89[0]|20002+89[1][0]|89[1][1]]", 0).
exit("XXI_Aprile_5_881", "[89[0]|20002+89[1][0]|89[1][1]]", 15).
enter("XXI_Aprile_5_881", "91", 15).
exit("XXI_Aprile_5_881", "91", 25).
enter("XXI_Aprile_5_881", "186", 25).
exit("XXI_Aprile_5_881", "186", 50).
enter("XXI_Aprile_5_881", "[109[0]|109[1][0]+20003|109[1][1]]", 50).
exit("XXI_Aprile_5_881", "[109[0]|109[1][0]+20003|109[1][1]]", 60).
enter("XXI_Aprile_5_881", "120", 60).
exit("XXI_Aprile_5_881", "120", 130).
enter("XXI_Aprile_5_881", "65", 130).
exit("XXI_Aprile_5_881", "65", 175).
enter("XXI_Aprile_5_881", "[200|60]", 175).
exit("XXI_Aprile_5_881", "[200|60]", 200).
origin("XXI_Aprile_93_889", "74").
enter("XXI_Aprile_93_889", "74", 0).
exit("XXI_Aprile_93_889", "74", 95).
enter("XXI_Aprile_93_889", "72[1]", 95).
exit("XXI_Aprile_93_889", "72[1]", 135).
enter("XXI_Aprile_93_889", "69", 135).
exit("XXI_Aprile_93_889", "69", 230).
enter("XXI_Aprile_93_889", "161", 230).
exit("XXI_Aprile_93_889", "161", 280).
enter("XXI_Aprile_93_889", "122", 280).
exit("XXI_Aprile_93_889", "122", 380).
enter("XXI_Aprile_93_889", "1b", 380).
exit("XXI_Aprile_93_889", "1b", 440).
enter("XXI_Aprile_93_889", "1", 440).
exit("XXI_Aprile_93_889", "1", 475).
enter("XXI_Aprile_93_889", "204a[0]", 475).
exit("XXI_Aprile_93_889", "204a[0]", 595).
enter("XXI_Aprile_93_889", "204b[0]", 595).
exit("XXI_Aprile_93_889", "204b[0]", 600).
enter("XXI_Aprile_93_889", "54", 600).
exit("XXI_Aprile_93_889", "54", 625).
origin("Costa_11_597", "1b").
enter("Costa_11_597", "1b", 0).
exit("Costa_11_597", "1b", 60).
enter("Costa_11_597", "1", 60).
exit("Costa_11_597", "1", 95).
enter("Costa_11_597", "204a[0]", 95).
exit("Costa_11_597", "204a[0]", 215).
enter("Costa_11_597", "124", 215).
exit("Costa_11_597", "124", 260).
origin("XXI_Aprile_113_518", "122").
enter("XXI_Aprile_113_518", "122", 0).
exit("XXI_Aprile_113_518", "122", 100).
enter("XXI_Aprile_113_518", "1b", 100).
exit("XXI_Aprile_113_518", "1b", 160).
enter("XXI_Aprile_113_518", "1", 160).
exit("XXI_Aprile_113_518", "1", 195).
enter("XXI_Aprile_113_518", "204a[0]", 195).
exit("XXI_Aprile_113_518", "204a[0]", 315).
enter("XXI_Aprile_113_518", "124", 315).
exit("XXI_Aprile_113_518", "124", 360).
origin("Pepoli_11_1455", "204a[0]").
enter("Pepoli_11_1455", "204a[0]", 0).
exit("Pepoli_11_1455", "204a[0]", 120).
enter("Pepoli_11_1455", "124", 120).
exit("Pepoli_11_1455", "124", 165).
origin("Pepoli_2_1440", "65").
enter("Pepoli_2_1440", "65", 0).
exit("Pepoli_2_1440", "65", 25).
enter("Pepoli_2_1440", "57[0]", 25).
exit("Pepoli_2_1440", "57[0]", 80).
enter("Pepoli_2_1440", "57[1]", 80).
exit("Pepoli_2_1440", "57[1]", 85).
enter("Pepoli_2_1440", "62", 85).
exit("Pepoli_2_1440", "62", 115).
enter("Pepoli_2_1440", "159", 115).
exit("Pepoli_2_1440", "159", 195).
enter("Pepoli_2_1440", "42", 195).
exit("Pepoli_2_1440", "42", 260).
enter("Pepoli_2_1440", "39", 260).
exit("Pepoli_2_1440", "39", 340).
enter("Pepoli_2_1440", "35", 340).
exit("Pepoli_2_1440", "35", 395).
enter("Pepoli_2_1440", "38", 395).
exit("Pepoli_2_1440", "38", 455).
enter("Pepoli_2_1440", "15", 455).
exit("Pepoli_2_1440", "15", 515).
enter("Pepoli_2_1440", "24", 515).
exit("Pepoli_2_1440", "24", 530).
enter("Pepoli_2_1440", "[22|59]", 530).
exit("Pepoli_2_1440", "[22|59]", 550).
enter("Pepoli_2_1440", "(53cd|53[0]|53[1][0]|53[1][1][0]|77[1][0])", 550).
exit("Pepoli_2_1440", "(53cd|53[0]|53[1][0]|53[1][1][0]|77[1][0])", 565).
enter("Pepoli_2_1440", "77[1][1]", 565).
exit("Pepoli_2_1440", "77[1][1]", 605).
origin("Costa_200_220", "204a[0]").
enter("Costa_200_220", "204a[0]", 0).
exit("Costa_200_220", "204a[0]", 230).
enter("Costa_200_220", "204b[0]", 230).
exit("Costa_200_220", "204b[0]", 410).
enter("Costa_200_220", "204[1][0]", 410).
exit("Costa_200_220", "204[1][0]", 585).
enter("Costa_200_220", "204[1][1]", 585).
exit("Costa_200_220", "204[1][1]", 665).
origin("Togliatti_10_670", "85").
enter("Togliatti_10_670", "85", 0).
exit("Togliatti_10_670", "85", 60).
enter("Togliatti_10_670", "72[0]", 60).
exit("Togliatti_10_670", "72[0]", 135).
enter("Togliatti_10_670", "72[1]", 135).
exit("Togliatti_10_670", "72[1]", 175).
enter("Togliatti_10_670", "69", 175).
exit("Togliatti_10_670", "69", 270).
enter("Togliatti_10_670", "161", 270).
exit("Togliatti_10_670", "161", 320).
enter("Togliatti_10_670", "122", 320).
exit("Togliatti_10_670", "122", 420).
enter("Togliatti_10_670", "1b", 420).
exit("Togliatti_10_670", "1b", 480).
enter("Togliatti_10_670", "1", 480).
exit("Togliatti_10_670", "1", 515).
enter("Togliatti_10_670", "204a[0]", 515).
exit("Togliatti_10_670", "204a[0]", 635).
enter("Togliatti_10_670", "204b[0]", 635).
exit("Togliatti_10_670", "204b[0]", 640).
enter("Togliatti_10_670", "204[1][0]", 640).
exit("Togliatti_10_670", "204[1][0]", 675).
enter("Togliatti_10_670", "204[1][1]", 675).
exit("Togliatti_10_670", "204[1][1]", 875).
origin("Togliatti_5_630", "85").
enter("Togliatti_5_630", "85", 0).
exit("Togliatti_5_630", "85", 110).
enter("Togliatti_5_630", "72[0]", 110).
exit("Togliatti_5_630", "72[0]", 185).
enter("Togliatti_5_630", "72[1]", 185).
exit("Togliatti_5_630", "72[1]", 225).
enter("Togliatti_5_630", "69", 225).
exit("Togliatti_5_630", "69", 320).
enter("Togliatti_5_630", "161", 320).
exit("Togliatti_5_630", "161", 370).
enter("Togliatti_5_630", "194", 370).
exit("Togliatti_5_630", "194", 450).
enter("Togliatti_5_630", "91", 450).
exit("Togliatti_5_630", "91", 470).
enter("Togliatti_5_630", "186", 470).
exit("Togliatti_5_630", "186", 500).
enter("Togliatti_5_630", "[109[0]|109[1][0]+20003|109[1][1]]", 500).
exit("Togliatti_5_630", "[109[0]|109[1][0]+20003|109[1][1]]", 535).
enter("Togliatti_5_630", "120", 535).
exit("Togliatti_5_630", "120", 555).
enter("Togliatti_5_630", "65", 555).
exit("Togliatti_5_630", "65", 600).
enter("Togliatti_5_630", "[200|60]", 600).
exit("Togliatti_5_630", "[200|60]", 675).
origin("Costa_200_1205", "161").
enter("Costa_200_1205", "161", 0).
exit("Costa_200_1205", "161", 50).
enter("Costa_200_1205", "122", 50).
exit("Costa_200_1205", "122", 105).
enter("Costa_200_1205", "1b", 105).
exit("Costa_200_1205", "1b", 165).
enter("Costa_200_1205", "1", 165).
exit("Costa_200_1205", "1", 200).
enter("Costa_200_1205", "204a[0]", 200).
exit("Costa_200_1205", "204a[0]", 320).
enter("Costa_200_1205", "204b[0]", 320).
exit("Costa_200_1205", "204b[0]", 325).
enter("Costa_200_1205", "204[1][0]", 325).
exit("Costa_200_1205", "204[1][0]", 360).
enter("Costa_200_1205", "204[1][1]", 360).
exit("Costa_200_1205", "204[1][1]", 395).
origin("XXI_Aprile_7_830", "91").
enter("XXI_Aprile_7_830", "91", 0).
exit("XXI_Aprile_7_830", "91", 20).
enter("XXI_Aprile_7_830", "186", 20).
exit("XXI_Aprile_7_830", "186", 50).
enter("XXI_Aprile_7_830", "[109[0]|109[1][0]+20003|109[1][1]]", 50).
exit("XXI_Aprile_7_830", "[109[0]|109[1][0]+20003|109[1][1]]", 85).
enter("XXI_Aprile_7_830", "[116|46]", 85).
exit("XXI_Aprile_7_830", "[116|46]", 150).
enter("XXI_Aprile_7_830", "113", 150).
exit("XXI_Aprile_7_830", "113", 200).
enter("XXI_Aprile_7_830", "209", 200).
exit("XXI_Aprile_7_830", "209", 235).
origin("XXI_Aprile_92_949", "188").
enter("XXI_Aprile_92_949", "188", 0).
exit("XXI_Aprile_92_949", "188", 40).
enter("XXI_Aprile_92_949", "[87[0]|20001+87[1][0]|87[1][1]]", 40).
exit("XXI_Aprile_92_949", "[87[0]|20001+87[1][0]|87[1][1]]", 45).
enter("XXI_Aprile_92_949", "m90", 45).
exit("XXI_Aprile_92_949", "m90", 95).
enter("XXI_Aprile_92_949", "[89[0]|20002+89[1][0]|89[1][1]]", 95).
exit("XXI_Aprile_92_949", "[89[0]|20002+89[1][0]|89[1][1]]", 130).
enter("XXI_Aprile_92_949", "91", 130).
exit("XXI_Aprile_92_949", "91", 140).
enter("XXI_Aprile_92_949", "186", 140).
exit("XXI_Aprile_92_949", "186", 150).
enter("XXI_Aprile_92_949", "[109[0]|109[1][0]+20003|109[1][1]]", 150).
exit("XXI_Aprile_92_949", "[109[0]|109[1][0]+20003|109[1][1]]", 165).
enter("XXI_Aprile_92_949", "[116|46]", 165).
exit("XXI_Aprile_92_949", "[116|46]", 230).
enter("XXI_Aprile_92_949", "201", 230).
exit("XXI_Aprile_92_949", "201", 385).
enter("XXI_Aprile_92_949", "201c", 385).
exit("XXI_Aprile_92_949", "201c", 505).
enter("XXI_Aprile_92_949", "204a[0]", 505).
exit("XXI_Aprile_92_949", "204a[0]", 600).
enter("XXI_Aprile_92_949", "204b[0]", 600).
exit("XXI_Aprile_92_949", "204b[0]", 630).
enter("XXI_Aprile_92_949", "54", 630).
exit("XXI_Aprile_92_949", "54", 660).
origin("Pepoli_11_1499", "201").
enter("Pepoli_11_1499", "201", 0).
exit("Pepoli_11_1499", "201", 540).
enter("Pepoli_11_1499", "201c", 540).
exit("Pepoli_11_1499", "201c", 575).
enter("Pepoli_11_1499", "204a[0]", 575).
exit("Pepoli_11_1499", "204a[0]", 630).
enter("Pepoli_11_1499", "124", 630).
exit("Pepoli_11_1499", "124", 1290).
origin("XXI_Aprile_7_806", "120").
enter("XXI_Aprile_7_806", "120", 0).
exit("XXI_Aprile_7_806", "120", 50).
enter("XXI_Aprile_7_806", "117", 50).
exit("XXI_Aprile_7_806", "117", 325).
enter("XXI_Aprile_7_806", "209", 325).
exit("XXI_Aprile_7_806", "209", 360).
origin("Togliatti_9_599", "72[0]").
enter("Togliatti_9_599", "72[0]", 0).
exit("Togliatti_9_599", "72[0]", 75).
enter("Togliatti_9_599", "72[1]", 75).
exit("Togliatti_9_599", "72[1]", 115).
enter("Togliatti_9_599", "69", 115).
exit("Togliatti_9_599", "69", 210).
enter("Togliatti_9_599", "161", 210).
exit("Togliatti_9_599", "161", 260).
enter("Togliatti_9_599", "122", 260).
exit("Togliatti_9_599", "122", 315).
enter("Togliatti_9_599", "1b", 315).
exit("Togliatti_9_599", "1b", 375).
enter("Togliatti_9_599", "1", 375).
exit("Togliatti_9_599", "1", 410).
enter("Togliatti_9_599", "204a[0]", 410).
exit("Togliatti_9_599", "204a[0]", 530).
enter("Togliatti_9_599", "204b[0]", 530).
exit("Togliatti_9_599", "204b[0]", 535).
enter("Togliatti_9_599", "54", 535).
exit("Togliatti_9_599", "54", 560).
origin("XXI_Aprile_7_828", "74").
enter("XXI_Aprile_7_828", "74", 0).
exit("XXI_Aprile_7_828", "74", 85).
enter("XXI_Aprile_7_828", "72[1]", 85).
exit("XXI_Aprile_7_828", "72[1]", 185).
enter("XXI_Aprile_7_828", "69", 185).
exit("XXI_Aprile_7_828", "69", 295).
enter("XXI_Aprile_7_828", "161", 295).
exit("XXI_Aprile_7_828", "161", 330).
enter("XXI_Aprile_7_828", "194", 330).
exit("XXI_Aprile_7_828", "194", 380).
enter("XXI_Aprile_7_828", "91", 380).
exit("XXI_Aprile_7_828", "91", 390).
enter("XXI_Aprile_7_828", "186", 390).
exit("XXI_Aprile_7_828", "186", 395).
enter("XXI_Aprile_7_828", "[109[0]|109[1][0]+20003|109[1][1]]", 395).
exit("XXI_Aprile_7_828", "[109[0]|109[1][0]+20003|109[1][1]]", 405).
enter("XXI_Aprile_7_828", "120", 405).
exit("XXI_Aprile_7_828", "120", 440).
enter("XXI_Aprile_7_828", "117", 440).
exit("XXI_Aprile_7_828", "117", 545).
enter("XXI_Aprile_7_828", "209", 545).
exit("XXI_Aprile_7_828", "209", 580).
origin("Pepoli_11_1812", "201").
enter("Pepoli_11_1812", "201", 0).
exit("Pepoli_11_1812", "201", 135).
enter("Pepoli_11_1812", "201c", 135).
exit("Pepoli_11_1812", "201c", 170).
enter("Pepoli_11_1812", "204a[0]", 170).
exit("Pepoli_11_1812", "204a[0]", 290).
enter("Pepoli_11_1812", "124", 290).
exit("Pepoli_11_1812", "124", 335).
origin("Vittorio_Veneto_1_579", "[181|18]").
enter("Vittorio_Veneto_1_579", "[181|18]", 0).
exit("Vittorio_Veneto_1_579", "[181|18]", 75).
enter("Vittorio_Veneto_1_579", "[17|71]", 75).
exit("Vittorio_Veneto_1_579", "[17|71]", 130).
enter("Vittorio_Veneto_1_579", "86", 130).
exit("Vittorio_Veneto_1_579", "86", 160).
origin("Pepoli_11_2067", "201").
enter("Pepoli_11_2067", "201", 0).
exit("Pepoli_11_2067", "201", 135).
enter("Pepoli_11_2067", "201c", 135).
exit("Pepoli_11_2067", "201c", 170).
enter("Pepoli_11_2067", "204a[0]", 170).
exit("Pepoli_11_2067", "204a[0]", 290).
enter("Pepoli_11_2067", "124", 290).
exit("Pepoli_11_2067", "124", 335).
origin("Vittorio_Veneto_10_398", "161").
enter("Vittorio_Veneto_10_398", "161", 0).
exit("Vittorio_Veneto_10_398", "161", 50).
enter("Vittorio_Veneto_10_398", "122", 50).
exit("Vittorio_Veneto_10_398", "122", 150).
enter("Vittorio_Veneto_10_398", "1b", 150).
exit("Vittorio_Veneto_10_398", "1b", 210).
enter("Vittorio_Veneto_10_398", "1", 210).
exit("Vittorio_Veneto_10_398", "1", 245).
enter("Vittorio_Veneto_10_398", "204a[0]", 245).
exit("Vittorio_Veneto_10_398", "204a[0]", 365).
enter("Vittorio_Veneto_10_398", "204b[0]", 365).
exit("Vittorio_Veneto_10_398", "204b[0]", 370).
enter("Vittorio_Veneto_10_398", "204[1][0]", 370).
exit("Vittorio_Veneto_10_398", "204[1][0]", 405).
enter("Vittorio_Veneto_10_398", "204[1][1]", 405).
exit("Vittorio_Veneto_10_398", "204[1][1]", 460).
origin("Vittorio_Veneto_1_600", "224[1]").
enter("Vittorio_Veneto_1_600", "224[1]", 0).
exit("Vittorio_Veneto_1_600", "224[1]", 60).
enter("Vittorio_Veneto_1_600", "[181|18]", 60).
exit("Vittorio_Veneto_1_600", "[181|18]", 135).
enter("Vittorio_Veneto_1_600", "[17|71]", 135).
exit("Vittorio_Veneto_1_600", "[17|71]", 190).
enter("Vittorio_Veneto_1_600", "86", 190).
exit("Vittorio_Veneto_1_600", "86", 220).
origin("Pepoli_12_1672", "[210|43[0]]").
enter("Pepoli_12_1672", "[210|43[0]]", 0).
exit("Pepoli_12_1672", "[210|43[0]]", 125).
enter("Pepoli_12_1672", "118", 125).
exit("Pepoli_12_1672", "118", 185).
enter("Pepoli_12_1672", "65", 185).
exit("Pepoli_12_1672", "65", 230).
enter("Pepoli_12_1672", "57[0]", 230).
exit("Pepoli_12_1672", "57[0]", 295).
enter("Pepoli_12_1672", "57[1]", 295).
exit("Pepoli_12_1672", "57[1]", 315).
enter("Pepoli_12_1672", "62", 315).
exit("Pepoli_12_1672", "62", 340).
enter("Pepoli_12_1672", "159", 340).
exit("Pepoli_12_1672", "159", 390).
enter("Pepoli_12_1672", "42", 390).
exit("Pepoli_12_1672", "42", 400).
enter("Pepoli_12_1672", "39", 400).
exit("Pepoli_12_1672", "39", 425).
enter("Pepoli_12_1672", "35", 425).
exit("Pepoli_12_1672", "35", 510).
enter("Pepoli_12_1672", "38", 510).
exit("Pepoli_12_1672", "38", 530).
enter("Pepoli_12_1672", "33", 530).
exit("Pepoli_12_1672", "33", 540).
enter("Pepoli_12_1672", "10", 540).
exit("Pepoli_12_1672", "10", 555).
enter("Pepoli_12_1672", "[13|104]", 555).
exit("Pepoli_12_1672", "[13|104]", 635).
enter("Pepoli_12_1672", "24", 635).
exit("Pepoli_12_1672", "24", 670).
enter("Pepoli_12_1672", "[22|59]", 670).
exit("Pepoli_12_1672", "[22|59]", 695).
enter("Pepoli_12_1672", "(53cd|53[0])", 695).
exit("Pepoli_12_1672", "(53cd|53[0])", 705).
enter("Pepoli_12_1672", "78[1][1]", 705).
exit("Pepoli_12_1672", "78[1][1]", 715).
enter("Pepoli_12_1672", "[189[0]|189[1][0]+20000|189[1][1]]", 715).
exit("Pepoli_12_1672", "[189[0]|189[1][0]+20000|189[1][1]]", 775).
enter("Pepoli_12_1672", "191", 775).
exit("Pepoli_12_1672", "191", 820).
enter("Pepoli_12_1672", "[17|71]", 820).
exit("Pepoli_12_1672", "[17|71]", 870).
enter("Pepoli_12_1672", "84", 870).
exit("Pepoli_12_1672", "84", 890).
enter("Pepoli_12_1672", "180", 890).
exit("Pepoli_12_1672", "180", 970).
origin("Togliatti_9_646", "85").
enter("Togliatti_9_646", "85", 0).
exit("Togliatti_9_646", "85", 110).
enter("Togliatti_9_646", "72[0]", 110).
exit("Togliatti_9_646", "72[0]", 185).
enter("Togliatti_9_646", "72[1]", 185).
exit("Togliatti_9_646", "72[1]", 225).
enter("Togliatti_9_646", "69", 225).
exit("Togliatti_9_646", "69", 320).
enter("Togliatti_9_646", "161", 320).
exit("Togliatti_9_646", "161", 370).
enter("Togliatti_9_646", "122", 370).
exit("Togliatti_9_646", "122", 470).
enter("Togliatti_9_646", "1b", 470).
exit("Togliatti_9_646", "1b", 530).
enter("Togliatti_9_646", "1", 530).
exit("Togliatti_9_646", "1", 565).
enter("Togliatti_9_646", "204a[0]", 565).
exit("Togliatti_9_646", "204a[0]", 685).
enter("Togliatti_9_646", "204b[0]", 685).
exit("Togliatti_9_646", "204b[0]", 690).
enter("Togliatti_9_646", "54", 690).
exit("Togliatti_9_646", "54", 715).
origin("XXI_Aprile_94_811", "74").
enter("XXI_Aprile_94_811", "74", 0).
exit("XXI_Aprile_94_811", "74", 190).
enter("XXI_Aprile_94_811", "72[1]", 190).
exit("XXI_Aprile_94_811", "72[1]", 270).
enter("XXI_Aprile_94_811", "69", 270).
exit("XXI_Aprile_94_811", "69", 395).
enter("XXI_Aprile_94_811", "161", 395).
exit("XXI_Aprile_94_811", "161", 425).
enter("XXI_Aprile_94_811", "122", 425).
exit("XXI_Aprile_94_811", "122", 1835).
enter("XXI_Aprile_94_811", "1b", 1835).
exit("XXI_Aprile_94_811", "1b", 2645).
enter("XXI_Aprile_94_811", "1", 2645).
exit("XXI_Aprile_94_811", "1", 2680).
enter("XXI_Aprile_94_811", "204a[0]", 2680).
exit("XXI_Aprile_94_811", "204a[0]", 2755).
enter("XXI_Aprile_94_811", "204b[0]", 2755).
exit("XXI_Aprile_94_811", "204b[0]", 2770).
enter("XXI_Aprile_94_811", "54", 2770).
exit("XXI_Aprile_94_811", "54", 2865).
origin("Pepoli_11_2084", "43[1]").
enter("Pepoli_11_2084", "43[1]", 0).
exit("Pepoli_11_2084", "43[1]", 70).
enter("Pepoli_11_2084", "201", 70).
exit("Pepoli_11_2084", "201", 205).
enter("Pepoli_11_2084", "201c", 205).
exit("Pepoli_11_2084", "201c", 240).
enter("Pepoli_11_2084", "204a[0]", 240).
exit("Pepoli_11_2084", "204a[0]", 360).
enter("Pepoli_11_2084", "124", 360).
exit("Pepoli_11_2084", "124", 405).
origin("XXI_Aprile_103_608", "204[1][1]").
enter("XXI_Aprile_103_608", "204[1][1]", 0).
exit("XXI_Aprile_103_608", "204[1][1]", 200).
origin("Togliatti_10_657", "85").
enter("Togliatti_10_657", "85", 0).
exit("Togliatti_10_657", "85", 70).
enter("Togliatti_10_657", "72[0]", 70).
exit("Togliatti_10_657", "72[0]", 145).
enter("Togliatti_10_657", "72[1]", 145).
exit("Togliatti_10_657", "72[1]", 185).
enter("Togliatti_10_657", "69", 185).
exit("Togliatti_10_657", "69", 280).
enter("Togliatti_10_657", "161", 280).
exit("Togliatti_10_657", "161", 330).
enter("Togliatti_10_657", "122", 330).
exit("Togliatti_10_657", "122", 430).
enter("Togliatti_10_657", "1b", 430).
exit("Togliatti_10_657", "1b", 490).
enter("Togliatti_10_657", "1", 490).
exit("Togliatti_10_657", "1", 525).
enter("Togliatti_10_657", "204a[0]", 525).
exit("Togliatti_10_657", "204a[0]", 645).
enter("Togliatti_10_657", "204b[0]", 645).
exit("Togliatti_10_657", "204b[0]", 650).
enter("Togliatti_10_657", "204[1][0]", 650).
exit("Togliatti_10_657", "204[1][0]", 685).
enter("Togliatti_10_657", "204[1][1]", 685).
exit("Togliatti_10_657", "204[1][1]", 885).
origin("Vittorio_Veneto_1_566", "86").
enter("Vittorio_Veneto_1_566", "86", 0).
exit("Vittorio_Veneto_1_566", "86", 30).
origin("XXI_Aprile_7_736", "[116|46]").
enter("XXI_Aprile_7_736", "[116|46]", 0).
exit("XXI_Aprile_7_736", "[116|46]", 65).
enter("XXI_Aprile_7_736", "113", 65).
exit("XXI_Aprile_7_736", "113", 135).
enter("XXI_Aprile_7_736", "209", 135).
exit("XXI_Aprile_7_736", "209", 170).
origin("XXI_Aprile_7_875", "[89[0]|20002+89[1][0]|89[1][1]]").
enter("XXI_Aprile_7_875", "[89[0]|20002+89[1][0]|89[1][1]]", 0).
exit("XXI_Aprile_7_875", "[89[0]|20002+89[1][0]|89[1][1]]", 30).
enter("XXI_Aprile_7_875", "91", 30).
exit("XXI_Aprile_7_875", "91", 40).
enter("XXI_Aprile_7_875", "186", 40).
exit("XXI_Aprile_7_875", "186", 50).
enter("XXI_Aprile_7_875", "[109[0]|109[1][0]+20003|109[1][1]]", 50).
exit("XXI_Aprile_7_875", "[109[0]|109[1][0]+20003|109[1][1]]", 60).
enter("XXI_Aprile_7_875", "120", 60).
exit("XXI_Aprile_7_875", "120", 110).
enter("XXI_Aprile_7_875", "117", 110).
exit("XXI_Aprile_7_875", "117", 195).
enter("XXI_Aprile_7_875", "209", 195).
exit("XXI_Aprile_7_875", "209", 1345).
origin("XXI_Aprile_7_978", "66").
enter("XXI_Aprile_7_978", "66", 0).
exit("XXI_Aprile_7_978", "66", 30).
enter("XXI_Aprile_7_978", "117", 30).
exit("XXI_Aprile_7_978", "117", 95).
enter("XXI_Aprile_7_978", "209", 95).
exit("XXI_Aprile_7_978", "209", 440).
origin("Pepoli_2_1090", "38").
enter("Pepoli_2_1090", "38", 0).
exit("Pepoli_2_1090", "38", 60).
enter("Pepoli_2_1090", "50", 60).
exit("Pepoli_2_1090", "50", 120).
enter("Pepoli_2_1090", "19", 120).
exit("Pepoli_2_1090", "19", 155).
enter("Pepoli_2_1090", "[22|59]", 155).
exit("Pepoli_2_1090", "[22|59]", 225).
enter("Pepoli_2_1090", "(53cd|53[0]|53[1][0]|53[1][1][0]|77[1][0])", 225).
exit("Pepoli_2_1090", "(53cd|53[0]|53[1][0]|53[1][1][0]|77[1][0])", 235).
enter("Pepoli_2_1090", "77[1][1]", 235).
exit("Pepoli_2_1090", "77[1][1]", 295).
origin("XXI_Aprile_113_762", "161").
enter("XXI_Aprile_113_762", "161", 0).
exit("XXI_Aprile_113_762", "161", 50).
enter("XXI_Aprile_113_762", "122", 50).
exit("XXI_Aprile_113_762", "122", 150).
enter("XXI_Aprile_113_762", "1b", 150).
exit("XXI_Aprile_113_762", "1b", 210).
enter("XXI_Aprile_113_762", "1", 210).
exit("XXI_Aprile_113_762", "1", 245).
enter("XXI_Aprile_113_762", "204a[0]", 245).
exit("XXI_Aprile_113_762", "204a[0]", 365).
enter("XXI_Aprile_113_762", "124", 365).
exit("XXI_Aprile_113_762", "124", 410).
origin("Pepoli_12_1290", "159").
enter("Pepoli_12_1290", "159", 0).
exit("Pepoli_12_1290", "159", 160).
enter("Pepoli_12_1290", "42", 160).
exit("Pepoli_12_1290", "42", 210).
enter("Pepoli_12_1290", "39", 210).
exit("Pepoli_12_1290", "39", 240).
enter("Pepoli_12_1290", "35", 240).
exit("Pepoli_12_1290", "35", 300).
enter("Pepoli_12_1290", "38", 300).
exit("Pepoli_12_1290", "38", 370).
enter("Pepoli_12_1290", "15", 370).
exit("Pepoli_12_1290", "15", 415).
enter("Pepoli_12_1290", "24", 415).
exit("Pepoli_12_1290", "24", 460).
enter("Pepoli_12_1290", "[22|59]", 460).
exit("Pepoli_12_1290", "[22|59]", 480).
enter("Pepoli_12_1290", "(53cd|53[0]|53[1][0])", 480).
exit("Pepoli_12_1290", "(53cd|53[0]|53[1][0])", 520).
enter("Pepoli_12_1290", "79", 520).
exit("Pepoli_12_1290", "79", 550).
enter("Pepoli_12_1290", "[68|11]", 550).
exit("Pepoli_12_1290", "[68|11]", 595).
enter("Pepoli_12_1290", "84", 595).
exit("Pepoli_12_1290", "84", 610).
enter("Pepoli_12_1290", "180", 610).
exit("Pepoli_12_1290", "180", 710).
origin("Vittorio_Veneto_10_646", "224[0]").
enter("Vittorio_Veneto_10_646", "224[0]", 0).
exit("Vittorio_Veneto_10_646", "224[0]", 140).
enter("Vittorio_Veneto_10_646", "224[1]", 140).
exit("Vittorio_Veneto_10_646", "224[1]", 200).
enter("Vittorio_Veneto_10_646", "[181|18]", 200).
exit("Vittorio_Veneto_10_646", "[181|18]", 275).
enter("Vittorio_Veneto_10_646", "69", 275).
exit("Vittorio_Veneto_10_646", "69", 370).
enter("Vittorio_Veneto_10_646", "161", 370).
exit("Vittorio_Veneto_10_646", "161", 395).
enter("Vittorio_Veneto_10_646", "122", 395).
exit("Vittorio_Veneto_10_646", "122", 450).
enter("Vittorio_Veneto_10_646", "1b", 450).
exit("Vittorio_Veneto_10_646", "1b", 510).
enter("Vittorio_Veneto_10_646", "1", 510).
exit("Vittorio_Veneto_10_646", "1", 545).
enter("Vittorio_Veneto_10_646", "204a[0]", 545).
exit("Vittorio_Veneto_10_646", "204a[0]", 665).
enter("Vittorio_Veneto_10_646", "204b[0]", 665).
exit("Vittorio_Veneto_10_646", "204b[0]", 670).
enter("Vittorio_Veneto_10_646", "204[1][0]", 670).
exit("Vittorio_Veneto_10_646", "204[1][0]", 705).
enter("Vittorio_Veneto_10_646", "204[1][1]", 705).
exit("Vittorio_Veneto_10_646", "204[1][1]", 740).
origin("Pepoli_12_915", "180").
enter("Pepoli_12_915", "180", 0).
exit("Pepoli_12_915", "180", 95).
origin("XXI_Aprile_113_987", "79").
enter("XXI_Aprile_113_987", "79", 0).
exit("XXI_Aprile_113_987", "79", 35).
enter("XXI_Aprile_113_987", "[68|11]", 35).
exit("XXI_Aprile_113_987", "[68|11]", 75).
enter("XXI_Aprile_113_987", "72[0]", 75).
exit("XXI_Aprile_113_987", "72[0]", 270).
enter("XXI_Aprile_113_987", "72[1]", 270).
exit("XXI_Aprile_113_987", "72[1]", 330).
enter("XXI_Aprile_113_987", "69", 330).
exit("XXI_Aprile_113_987", "69", 425).
enter("XXI_Aprile_113_987", "161", 425).
exit("XXI_Aprile_113_987", "161", 455).
enter("XXI_Aprile_113_987", "122", 455).
exit("XXI_Aprile_113_987", "122", 1135).
enter("XXI_Aprile_113_987", "1b", 1135).
exit("XXI_Aprile_113_987", "1b", 1295).
enter("XXI_Aprile_113_987", "1", 1295).
exit("XXI_Aprile_113_987", "1", 1335).
enter("XXI_Aprile_113_987", "204a[0]", 1335).
exit("XXI_Aprile_113_987", "204a[0]", 1410).
enter("XXI_Aprile_113_987", "124", 1410).
exit("XXI_Aprile_113_987", "124", 1505).
origin("XXI_Aprile_102_973", "[189[0]|189[1][0]+20000|189[1][1]]").
enter("XXI_Aprile_102_973", "[189[0]|189[1][0]+20000|189[1][1]]", 0).
exit("XXI_Aprile_102_973", "[189[0]|189[1][0]+20000|189[1][1]]", 60).
enter("XXI_Aprile_102_973", "188", 60).
exit("XXI_Aprile_102_973", "188", 130).
enter("XXI_Aprile_102_973", "[87[0]|20001+87[1][0]|87[1][1]]", 130).
exit("XXI_Aprile_102_973", "[87[0]|20001+87[1][0]|87[1][1]]", 145).
enter("XXI_Aprile_102_973", "m90", 145).
exit("XXI_Aprile_102_973", "m90", 180).
enter("XXI_Aprile_102_973", "171", 180).
exit("XXI_Aprile_102_973", "171", 230).
enter("XXI_Aprile_102_973", "161", 230).
exit("XXI_Aprile_102_973", "161", 255).
enter("XXI_Aprile_102_973", "122", 255).
exit("XXI_Aprile_102_973", "122", 375).
enter("XXI_Aprile_102_973", "1b", 375).
exit("XXI_Aprile_102_973", "1b", 720).
enter("XXI_Aprile_102_973", "1", 720).
exit("XXI_Aprile_102_973", "1", 1200).
enter("XXI_Aprile_102_973", "204a[0]", 1200).
exit("XXI_Aprile_102_973", "204a[0]", 1955).
enter("XXI_Aprile_102_973", "204b[0]", 1955).
exit("XXI_Aprile_102_973", "204b[0]", 2140).
enter("XXI_Aprile_102_973", "204[1][0]", 2140).
exit("XXI_Aprile_102_973", "204[1][0]", 2215).
enter("XXI_Aprile_102_973", "204[1][1]", 2215).
exit("XXI_Aprile_102_973", "204[1][1]", 2275).
origin("XXI_Aprile_7_976", "58[0]").
enter("XXI_Aprile_7_976", "58[0]", 0).
exit("XXI_Aprile_7_976", "58[0]", 25).
enter("XXI_Aprile_7_976", "58[1]", 25).
exit("XXI_Aprile_7_976", "58[1]", 45).
enter("XXI_Aprile_7_976", "66", 45).
exit("XXI_Aprile_7_976", "66", 55).
enter("XXI_Aprile_7_976", "117", 55).
exit("XXI_Aprile_7_976", "117", 110).
enter("XXI_Aprile_7_976", "209", 110).
exit("XXI_Aprile_7_976", "209", 145).
origin("XXI_Aprile_9_150", "122").
enter("XXI_Aprile_9_150", "122", 0).
exit("XXI_Aprile_9_150", "122", 20).
enter("XXI_Aprile_9_150", "1b", 20).
exit("XXI_Aprile_9_150", "1b", 80).
enter("XXI_Aprile_9_150", "1", 80).
exit("XXI_Aprile_9_150", "1", 115).
enter("XXI_Aprile_9_150", "204a[0]", 115).
exit("XXI_Aprile_9_150", "204a[0]", 235).
enter("XXI_Aprile_9_150", "204b[0]", 235).
exit("XXI_Aprile_9_150", "204b[0]", 240).
enter("XXI_Aprile_9_150", "54", 240).
exit("XXI_Aprile_9_150", "54", 265).
origin("XXI_Aprile_7_908", "[89[0]|20002+89[1][0]|89[1][1]]").
enter("XXI_Aprile_7_908", "[89[0]|20002+89[1][0]|89[1][1]]", 0).
exit("XXI_Aprile_7_908", "[89[0]|20002+89[1][0]|89[1][1]]", 25).
enter("XXI_Aprile_7_908", "91", 25).
exit("XXI_Aprile_7_908", "91", 45).
enter("XXI_Aprile_7_908", "186", 45).
exit("XXI_Aprile_7_908", "186", 50).
enter("XXI_Aprile_7_908", "[109[0]|109[1][0]+20003|109[1][1]]", 50).
exit("XXI_Aprile_7_908", "[109[0]|109[1][0]+20003|109[1][1]]", 85).
enter("XXI_Aprile_7_908", "120", 85).
exit("XXI_Aprile_7_908", "120", 105).
enter("XXI_Aprile_7_908", "117", 105).
exit("XXI_Aprile_7_908", "117", 175).
enter("XXI_Aprile_7_908", "209", 175).
exit("XXI_Aprile_7_908", "209", 235).
origin("Pepoli_11_2022", "201").
enter("Pepoli_11_2022", "201", 0).
exit("Pepoli_11_2022", "201", 135).
enter("Pepoli_11_2022", "201c", 135).
exit("Pepoli_11_2022", "201c", 170).
enter("Pepoli_11_2022", "204a[0]", 170).
exit("Pepoli_11_2022", "204a[0]", 290).
enter("Pepoli_11_2022", "124", 290).
exit("Pepoli_11_2022", "124", 335).
origin("Togliatti_9_567", "72[1]").
enter("Togliatti_9_567", "72[1]", 0).
exit("Togliatti_9_567", "72[1]", 40).
enter("Togliatti_9_567", "69", 40).
exit("Togliatti_9_567", "69", 135).
enter("Togliatti_9_567", "161", 135).
exit("Togliatti_9_567", "161", 185).
enter("Togliatti_9_567", "122", 185).
exit("Togliatti_9_567", "122", 240).
enter("Togliatti_9_567", "1b", 240).
exit("Togliatti_9_567", "1b", 300).
enter("Togliatti_9_567", "1", 300).
exit("Togliatti_9_567", "1", 335).
enter("Togliatti_9_567", "204a[0]", 335).
exit("Togliatti_9_567", "204a[0]", 455).
enter("Togliatti_9_567", "204b[0]", 455).
exit("Togliatti_9_567", "204b[0]", 460).
enter("Togliatti_9_567", "54", 460).
exit("Togliatti_9_567", "54", 485).
origin("XXI_Aprile_113_959", "[189[0]|189[1][0]+20000|189[1][1]]").
enter("XXI_Aprile_113_959", "[189[0]|189[1][0]+20000|189[1][1]]", 0).
exit("XXI_Aprile_113_959", "[189[0]|189[1][0]+20000|189[1][1]]", 55).
enter("XXI_Aprile_113_959", "188", 55).
exit("XXI_Aprile_113_959", "188", 100).
enter("XXI_Aprile_113_959", "[87[0]|20001+87[1][0]|87[1][1]]", 100).
exit("XXI_Aprile_113_959", "[87[0]|20001+87[1][0]|87[1][1]]", 120).
enter("XXI_Aprile_113_959", "m90", 120).
exit("XXI_Aprile_113_959", "m90", 125).
enter("XXI_Aprile_113_959", "171", 125).
exit("XXI_Aprile_113_959", "171", 180).
enter("XXI_Aprile_113_959", "161", 180).
exit("XXI_Aprile_113_959", "161", 200).
enter("XXI_Aprile_113_959", "122", 200).
exit("XXI_Aprile_113_959", "122", 1090).
enter("XXI_Aprile_113_959", "1b", 1090).
exit("XXI_Aprile_113_959", "1b", 1330).
enter("XXI_Aprile_113_959", "1", 1330).
exit("XXI_Aprile_113_959", "1", 1960).
enter("XXI_Aprile_113_959", "204a[0]", 1960).
exit("XXI_Aprile_113_959", "204a[0]", 2240).
enter("XXI_Aprile_113_959", "124", 2240).
exit("XXI_Aprile_113_959", "124", 2375).
origin("Costa_200_1118", "122").
enter("Costa_200_1118", "122", 0).
exit("Costa_200_1118", "122", 180).
enter("Costa_200_1118", "1b", 180).
exit("Costa_200_1118", "1b", 1230).
enter("Costa_200_1118", "1", 1230).
exit("Costa_200_1118", "1", 1400).
enter("Costa_200_1118", "204a[0]", 1400).
exit("Costa_200_1118", "204a[0]", 1450).
enter("Costa_200_1118", "204b[0]", 1450).
exit("Costa_200_1118", "204b[0]", 1520).
enter("Costa_200_1118", "204[1][0]", 1520).
exit("Costa_200_1118", "204[1][0]", 1555).
enter("Costa_200_1118", "204[1][1]", 1555).
exit("Costa_200_1118", "204[1][1]", 1590).
origin("Togliatti_80_674", "186").
enter("Togliatti_80_674", "186", 0).
exit("Togliatti_80_674", "186", 15).
enter("Togliatti_80_674", "[109[0]|109[1][0]+20003|109[1][1]]", 15).
exit("Togliatti_80_674", "[109[0]|109[1][0]+20003|109[1][1]]", 105).
enter("Togliatti_80_674", "[116|46]", 105).
exit("Togliatti_80_674", "[116|46]", 250).
enter("Togliatti_80_674", "134", 250).
exit("Togliatti_80_674", "134", 260).
origin("XXI_Aprile_7_904", "117").
enter("XXI_Aprile_7_904", "117", 0).
exit("XXI_Aprile_7_904", "117", 65).
enter("XXI_Aprile_7_904", "209", 65).
exit("XXI_Aprile_7_904", "209", 100).
origin("Audinot_3_165", "131").
enter("Audinot_3_165", "131", 0).
exit("Audinot_3_165", "131", 80).
enter("Audinot_3_165", "65", 80).
exit("Audinot_3_165", "65", 125).
enter("Audinot_3_165", "57[0]", 125).
exit("Audinot_3_165", "57[0]", 210).
enter("Audinot_3_165", "57[1]", 210).
exit("Audinot_3_165", "57[1]", 225).
enter("Audinot_3_165", "62", 225).
exit("Audinot_3_165", "62", 315).
enter("Audinot_3_165", "159", 315).
exit("Audinot_3_165", "159", 420).
enter("Audinot_3_165", "42", 420).
exit("Audinot_3_165", "42", 440).
enter("Audinot_3_165", "39", 440).
exit("Audinot_3_165", "39", 460).
enter("Audinot_3_165", "35", 460).
exit("Audinot_3_165", "35", 515).
enter("Audinot_3_165", "38", 515).
exit("Audinot_3_165", "38", 575).
enter("Audinot_3_165", "15", 575).
exit("Audinot_3_165", "15", 650).
enter("Audinot_3_165", "14", 650).
exit("Audinot_3_165", "14", 690).
origin("Pepoli_12_1201", "42").
enter("Pepoli_12_1201", "42", 0).
exit("Pepoli_12_1201", "42", 20).
enter("Pepoli_12_1201", "39", 20).
exit("Pepoli_12_1201", "39", 40).
enter("Pepoli_12_1201", "35", 40).
exit("Pepoli_12_1201", "35", 95).
enter("Pepoli_12_1201", "38", 95).
exit("Pepoli_12_1201", "38", 155).
enter("Pepoli_12_1201", "50", 155).
exit("Pepoli_12_1201", "50", 185).
enter("Pepoli_12_1201", "19", 185).
exit("Pepoli_12_1201", "19", 220).
enter("Pepoli_12_1201", "[22|59]", 220).
exit("Pepoli_12_1201", "[22|59]", 290).
enter("Pepoli_12_1201", "(53cd|53[0]|53[1][0])", 290).
exit("Pepoli_12_1201", "(53cd|53[0]|53[1][0])", 310).
enter("Pepoli_12_1201", "79", 310).
exit("Pepoli_12_1201", "79", 380).
enter("Pepoli_12_1201", "[68|11]", 380).
exit("Pepoli_12_1201", "[68|11]", 435).
enter("Pepoli_12_1201", "84", 435).
exit("Pepoli_12_1201", "84", 455).
enter("Pepoli_12_1201", "180", 455).
exit("Pepoli_12_1201", "180", 480).
origin("XXI_Aprile_1_940", "191").
enter("XXI_Aprile_1_940", "191", 0).
exit("XXI_Aprile_1_940", "191", 45).
enter("XXI_Aprile_1_940", "[17|71]", 45).
exit("XXI_Aprile_1_940", "[17|71]", 100).
enter("XXI_Aprile_1_940", "86", 100).
exit("XXI_Aprile_1_940", "86", 130).
origin("Pepoli_11_1365", "204a[0]").
enter("Pepoli_11_1365", "204a[0]", 0).
exit("Pepoli_11_1365", "204a[0]", 120).
enter("Pepoli_11_1365", "124", 120).
exit("Pepoli_11_1365", "124", 165).
origin("XXI_Aprile_1_1006", "[13|104]").
enter("XXI_Aprile_1_1006", "[13|104]", 0).
exit("XXI_Aprile_1_1006", "[13|104]", 60).
enter("XXI_Aprile_1_1006", "24", 60).
exit("XXI_Aprile_1_1006", "24", 80).
enter("XXI_Aprile_1_1006", "[22|59]", 80).
exit("XXI_Aprile_1_1006", "[22|59]", 100).
enter("XXI_Aprile_1_1006", "(53cd|53[0]|53[1][0])", 100).
exit("XXI_Aprile_1_1006", "(53cd|53[0]|53[1][0])", 120).
enter("XXI_Aprile_1_1006", "79", 120).
exit("XXI_Aprile_1_1006", "79", 135).
enter("XXI_Aprile_1_1006", "[68|11]", 135).
exit("XXI_Aprile_1_1006", "[68|11]", 175).
enter("XXI_Aprile_1_1006", "86", 175).
exit("XXI_Aprile_1_1006", "86", 205).
origin("Pepoli_11_1667", "204a[0]").
enter("Pepoli_11_1667", "204a[0]", 0).
exit("Pepoli_11_1667", "204a[0]", 120).
enter("Pepoli_11_1667", "124", 120).
exit("Pepoli_11_1667", "124", 165).
origin("Vittorio_Veneto_10_589", "224[1]").
enter("Vittorio_Veneto_10_589", "224[1]", 0).
exit("Vittorio_Veneto_10_589", "224[1]", 60).
enter("Vittorio_Veneto_10_589", "[181|18]", 60).
exit("Vittorio_Veneto_10_589", "[181|18]", 135).
enter("Vittorio_Veneto_10_589", "69", 135).
exit("Vittorio_Veneto_10_589", "69", 230).
enter("Vittorio_Veneto_10_589", "161", 230).
exit("Vittorio_Veneto_10_589", "161", 280).
enter("Vittorio_Veneto_10_589", "122", 280).
exit("Vittorio_Veneto_10_589", "122", 335).
enter("Vittorio_Veneto_10_589", "1b", 335).
exit("Vittorio_Veneto_10_589", "1b", 395).
enter("Vittorio_Veneto_10_589", "1", 395).
exit("Vittorio_Veneto_10_589", "1", 430).
enter("Vittorio_Veneto_10_589", "204a[0]", 430).
exit("Vittorio_Veneto_10_589", "204a[0]", 550).
enter("Vittorio_Veneto_10_589", "204b[0]", 550).
exit("Vittorio_Veneto_10_589", "204b[0]", 555).
enter("Vittorio_Veneto_10_589", "204[1][0]", 555).
exit("Vittorio_Veneto_10_589", "204[1][0]", 590).
enter("Vittorio_Veneto_10_589", "204[1][1]", 590).
exit("Vittorio_Veneto_10_589", "204[1][1]", 625).
origin("Audinot_12_162", "131").
enter("Audinot_12_162", "131", 0).
exit("Audinot_12_162", "131", 80).
enter("Audinot_12_162", "65", 80).
exit("Audinot_12_162", "65", 125).
enter("Audinot_12_162", "57[0]", 125).
exit("Audinot_12_162", "57[0]", 210).
enter("Audinot_12_162", "57[1]", 210).
exit("Audinot_12_162", "57[1]", 225).
enter("Audinot_12_162", "62", 225).
exit("Audinot_12_162", "62", 315).
enter("Audinot_12_162", "159", 315).
exit("Audinot_12_162", "159", 420).
enter("Audinot_12_162", "42", 420).
exit("Audinot_12_162", "42", 440).
enter("Audinot_12_162", "39", 440).
exit("Audinot_12_162", "39", 460).
enter("Audinot_12_162", "35", 460).
exit("Audinot_12_162", "35", 515).
enter("Audinot_12_162", "38", 515).
exit("Audinot_12_162", "38", 575).
enter("Audinot_12_162", "50", 575).
exit("Audinot_12_162", "50", 635).
enter("Audinot_12_162", "19", 635).
exit("Audinot_12_162", "19", 670).
enter("Audinot_12_162", "[22|59]", 670).
exit("Audinot_12_162", "[22|59]", 740).
enter("Audinot_12_162", "(53cd|53[0]|53[1][0])", 740).
exit("Audinot_12_162", "(53cd|53[0]|53[1][0])", 760).
enter("Audinot_12_162", "79", 760).
exit("Audinot_12_162", "79", 830).
enter("Audinot_12_162", "[68|11]", 830).
exit("Audinot_12_162", "[68|11]", 910).
enter("Audinot_12_162", "84", 910).
exit("Audinot_12_162", "84", 930).
enter("Audinot_12_162", "180", 930).
exit("Audinot_12_162", "180", 1025).
origin("Vittorio_Veneto_2_557", "67").
enter("Vittorio_Veneto_2_557", "67", 0).
exit("Vittorio_Veneto_2_557", "67", 10).
enter("Vittorio_Veneto_2_557", "[80|127]", 10).
exit("Vittorio_Veneto_2_557", "[80|127]", 45).
enter("Vittorio_Veneto_2_557", "(77[1][0])", 45).
exit("Vittorio_Veneto_2_557", "(77[1][0])", 65).
enter("Vittorio_Veneto_2_557", "77[1][1]", 65).
exit("Vittorio_Veneto_2_557", "77[1][1]", 125).
origin("Pepoli_3_1001", "15").
enter("Pepoli_3_1001", "15", 0).
exit("Pepoli_3_1001", "15", 75).
enter("Pepoli_3_1001", "14", 75).
exit("Pepoli_3_1001", "14", 115).
origin("XXI_Aprile_94_899", "161").
enter("XXI_Aprile_94_899", "161", 0).
exit("XXI_Aprile_94_899", "161", 85).
enter("XXI_Aprile_94_899", "122", 85).
exit("XXI_Aprile_94_899", "122", 815).
enter("XXI_Aprile_94_899", "1b", 815).
exit("XXI_Aprile_94_899", "1b", 2430).
enter("XXI_Aprile_94_899", "1", 2430).
exit("XXI_Aprile_94_899", "1", 2555).
enter("XXI_Aprile_94_899", "204a[0]", 2555).
exit("XXI_Aprile_94_899", "204a[0]", 2620).
enter("XXI_Aprile_94_899", "204b[0]", 2620).
exit("XXI_Aprile_94_899", "204b[0]", 2705).
enter("XXI_Aprile_94_899", "54", 2705).
exit("XXI_Aprile_94_899", "54", 2930).
origin("Pepoli_3_1541", "[210|43[0]]").
enter("Pepoli_3_1541", "[210|43[0]]", 0).
exit("Pepoli_3_1541", "[210|43[0]]", 80).
enter("Pepoli_3_1541", "118", 80).
exit("Pepoli_3_1541", "118", 140).
enter("Pepoli_3_1541", "65", 140).
exit("Pepoli_3_1541", "65", 185).
enter("Pepoli_3_1541", "57[0]", 185).
exit("Pepoli_3_1541", "57[0]", 270).
enter("Pepoli_3_1541", "57[1]", 270).
exit("Pepoli_3_1541", "57[1]", 285).
enter("Pepoli_3_1541", "62", 285).
exit("Pepoli_3_1541", "62", 335).
enter("Pepoli_3_1541", "159", 335).
exit("Pepoli_3_1541", "159", 440).
enter("Pepoli_3_1541", "42", 440).
exit("Pepoli_3_1541", "42", 460).
enter("Pepoli_3_1541", "39", 460).
exit("Pepoli_3_1541", "39", 480).
enter("Pepoli_3_1541", "35", 480).
exit("Pepoli_3_1541", "35", 535).
enter("Pepoli_3_1541", "38", 535).
exit("Pepoli_3_1541", "38", 595).
enter("Pepoli_3_1541", "15", 595).
exit("Pepoli_3_1541", "15", 670).
enter("Pepoli_3_1541", "14", 670).
exit("Pepoli_3_1541", "14", 710).
origin("Costa_200_1224", "161").
enter("Costa_200_1224", "161", 0).
exit("Costa_200_1224", "161", 50).
enter("Costa_200_1224", "122", 50).
exit("Costa_200_1224", "122", 105).
enter("Costa_200_1224", "1b", 105).
exit("Costa_200_1224", "1b", 165).
enter("Costa_200_1224", "1", 165).
exit("Costa_200_1224", "1", 200).
enter("Costa_200_1224", "204a[0]", 200).
exit("Costa_200_1224", "204a[0]", 320).
enter("Costa_200_1224", "204b[0]", 320).
exit("Costa_200_1224", "204b[0]", 325).
enter("Costa_200_1224", "204[1][0]", 325).
exit("Costa_200_1224", "204[1][0]", 360).
enter("Costa_200_1224", "204[1][1]", 360).
exit("Costa_200_1224", "204[1][1]", 395).
origin("Costa_200_501", "122").
enter("Costa_200_501", "122", 0).
exit("Costa_200_501", "122", 55).
enter("Costa_200_501", "1b", 55).
exit("Costa_200_501", "1b", 115).
enter("Costa_200_501", "1", 115).
exit("Costa_200_501", "1", 150).
enter("Costa_200_501", "204a[0]", 150).
exit("Costa_200_501", "204a[0]", 270).
enter("Costa_200_501", "204b[0]", 270).
exit("Costa_200_501", "204b[0]", 275).
enter("Costa_200_501", "204[1][0]", 275).
exit("Costa_200_501", "204[1][0]", 310).
enter("Costa_200_501", "204[1][1]", 310).
exit("Costa_200_501", "204[1][1]", 345).
origin("Pepoli_11_2016", "201").
enter("Pepoli_11_2016", "201", 0).
exit("Pepoli_11_2016", "201", 135).
enter("Pepoli_11_2016", "201c", 135).
exit("Pepoli_11_2016", "201c", 170).
enter("Pepoli_11_2016", "204a[0]", 170).
exit("Pepoli_11_2016", "204a[0]", 290).
enter("Pepoli_11_2016", "124", 290).
exit("Pepoli_11_2016", "124", 335).
origin("Vittorio_Veneto_10_431", "161").
enter("Vittorio_Veneto_10_431", "161", 0).
exit("Vittorio_Veneto_10_431", "161", 50).
enter("Vittorio_Veneto_10_431", "122", 50).
exit("Vittorio_Veneto_10_431", "122", 150).
enter("Vittorio_Veneto_10_431", "1b", 150).
exit("Vittorio_Veneto_10_431", "1b", 210).
enter("Vittorio_Veneto_10_431", "1", 210).
exit("Vittorio_Veneto_10_431", "1", 245).
enter("Vittorio_Veneto_10_431", "204a[0]", 245).
exit("Vittorio_Veneto_10_431", "204a[0]", 365).
enter("Vittorio_Veneto_10_431", "204b[0]", 365).
exit("Vittorio_Veneto_10_431", "204b[0]", 370).
enter("Vittorio_Veneto_10_431", "204[1][0]", 370).
exit("Vittorio_Veneto_10_431", "204[1][0]", 405).
enter("Vittorio_Veneto_10_431", "204[1][1]", 405).
exit("Vittorio_Veneto_10_431", "204[1][1]", 510).
origin("Costa_200_1281", "1").
enter("Costa_200_1281", "1", 0).
exit("Costa_200_1281", "1", 35).
enter("Costa_200_1281", "204a[0]", 35).
exit("Costa_200_1281", "204a[0]", 155).
enter("Costa_200_1281", "204b[0]", 155).
exit("Costa_200_1281", "204b[0]", 160).
enter("Costa_200_1281", "204[1][0]", 160).
exit("Costa_200_1281", "204[1][0]", 195).
enter("Costa_200_1281", "204[1][1]", 195).
exit("Costa_200_1281", "204[1][1]", 230).
origin("Pepoli_11_1736", "43[1]").
enter("Pepoli_11_1736", "43[1]", 0).
exit("Pepoli_11_1736", "43[1]", 70).
enter("Pepoli_11_1736", "201", 70).
exit("Pepoli_11_1736", "201", 205).
enter("Pepoli_11_1736", "201c", 205).
exit("Pepoli_11_1736", "201c", 240).
enter("Pepoli_11_1736", "204a[0]", 240).
exit("Pepoli_11_1736", "204a[0]", 360).
enter("Pepoli_11_1736", "124", 360).
exit("Pepoli_11_1736", "124", 405).
origin("Pepoli_11_2059", "201").
enter("Pepoli_11_2059", "201", 0).
exit("Pepoli_11_2059", "201", 135).
enter("Pepoli_11_2059", "201c", 135).
exit("Pepoli_11_2059", "201c", 170).
enter("Pepoli_11_2059", "204a[0]", 170).
exit("Pepoli_11_2059", "204a[0]", 290).
enter("Pepoli_11_2059", "124", 290).
exit("Pepoli_11_2059", "124", 335).
origin("Costa_200_303", "204a[0]").
enter("Costa_200_303", "204a[0]", 0).
exit("Costa_200_303", "204a[0]", 120).
enter("Costa_200_303", "204b[0]", 120).
exit("Costa_200_303", "204b[0]", 125).
enter("Costa_200_303", "204[1][0]", 125).
exit("Costa_200_303", "204[1][0]", 160).
enter("Costa_200_303", "204[1][1]", 160).
exit("Costa_200_303", "204[1][1]", 195).
origin("Pepoli_11_1997", "201").
enter("Pepoli_11_1997", "201", 0).
exit("Pepoli_11_1997", "201", 135).
enter("Pepoli_11_1997", "201c", 135).
exit("Pepoli_11_1997", "201c", 170).
enter("Pepoli_11_1997", "204a[0]", 170).
exit("Pepoli_11_1997", "204a[0]", 290).
enter("Pepoli_11_1997", "124", 290).
exit("Pepoli_11_1997", "124", 335).
origin("Togliatti_71_723", "[181|18]").
enter("Togliatti_71_723", "[181|18]", 0).
exit("Togliatti_71_723", "[181|18]", 145).
enter("Togliatti_71_723", "69", 145).
exit("Togliatti_71_723", "69", 215).
enter("Togliatti_71_723", "161", 215).
exit("Togliatti_71_723", "161", 235).
enter("Togliatti_71_723", "194", 235).
exit("Togliatti_71_723", "194", 305).
enter("Togliatti_71_723", "91", 305).
exit("Togliatti_71_723", "91", 310).
enter("Togliatti_71_723", "186", 310).
exit("Togliatti_71_723", "186", 315).
enter("Togliatti_71_723", "[109[0]|109[1][0]+20003|109[1][1]]", 315).
exit("Togliatti_71_723", "[109[0]|109[1][0]+20003|109[1][1]]", 385).
enter("Togliatti_71_723", "120", 385).
exit("Togliatti_71_723", "120", 400).
enter("Togliatti_71_723", "117", 400).
exit("Togliatti_71_723", "117", 465).
enter("Togliatti_71_723", "209", 465).
exit("Togliatti_71_723", "209", 505).
origin("Costa_200_555", "1b").
enter("Costa_200_555", "1b", 0).
exit("Costa_200_555", "1b", 60).
enter("Costa_200_555", "1", 60).
exit("Costa_200_555", "1", 95).
enter("Costa_200_555", "204a[0]", 95).
exit("Costa_200_555", "204a[0]", 215).
enter("Costa_200_555", "204b[0]", 215).
exit("Costa_200_555", "204b[0]", 220).
enter("Costa_200_555", "204[1][0]", 220).
exit("Costa_200_555", "204[1][0]", 255).
enter("Costa_200_555", "204[1][1]", 255).
exit("Costa_200_555", "204[1][1]", 310).
origin("Pepoli_3_1088", "38").
enter("Pepoli_3_1088", "38", 0).
exit("Pepoli_3_1088", "38", 60).
enter("Pepoli_3_1088", "15", 60).
exit("Pepoli_3_1088", "15", 135).
enter("Pepoli_3_1088", "14", 135).
exit("Pepoli_3_1088", "14", 175).
origin("XXI_Aprile_93_653", "204a[0]").
enter("XXI_Aprile_93_653", "204a[0]", 0).
exit("XXI_Aprile_93_653", "204a[0]", 120).
enter("XXI_Aprile_93_653", "204b[0]", 120).
exit("XXI_Aprile_93_653", "204b[0]", 125).
enter("XXI_Aprile_93_653", "54", 125).
exit("XXI_Aprile_93_653", "54", 150).
origin("Pepoli_11_2028", "201").
enter("Pepoli_11_2028", "201", 0).
exit("Pepoli_11_2028", "201", 135).
enter("Pepoli_11_2028", "201c", 135).
exit("Pepoli_11_2028", "201c", 170).
enter("Pepoli_11_2028", "204a[0]", 170).
exit("Pepoli_11_2028", "204a[0]", 290).
enter("Pepoli_11_2028", "124", 290).
exit("Pepoli_11_2028", "124", 335).
origin("Pepoli_3_1082", "38").
enter("Pepoli_3_1082", "38", 0).
exit("Pepoli_3_1082", "38", 60).
enter("Pepoli_3_1082", "15", 60).
exit("Pepoli_3_1082", "15", 135).
enter("Pepoli_3_1082", "14", 135).
exit("Pepoli_3_1082", "14", 175).
origin("XXI_Aprile_7_698", "209").
enter("XXI_Aprile_7_698", "209", 0).
exit("XXI_Aprile_7_698", "209", 45).
origin("XXI_Aprile_7_932", "74").
enter("XXI_Aprile_7_932", "74", 0).
exit("XXI_Aprile_7_932", "74", 315).
enter("XXI_Aprile_7_932", "72[1]", 315).
exit("XXI_Aprile_7_932", "72[1]", 375).
enter("XXI_Aprile_7_932", "69", 375).
exit("XXI_Aprile_7_932", "69", 470).
enter("XXI_Aprile_7_932", "161", 470).
exit("XXI_Aprile_7_932", "161", 545).
enter("XXI_Aprile_7_932", "194", 545).
exit("XXI_Aprile_7_932", "194", 565).
enter("XXI_Aprile_7_932", "91", 565).
exit("XXI_Aprile_7_932", "91", 580).
enter("XXI_Aprile_7_932", "186", 580).
exit("XXI_Aprile_7_932", "186", 645).
enter("XXI_Aprile_7_932", "[109[0]|109[1][0]+20003|109[1][1]]", 645).
exit("XXI_Aprile_7_932", "[109[0]|109[1][0]+20003|109[1][1]]", 665).
enter("XXI_Aprile_7_932", "120", 665).
exit("XXI_Aprile_7_932", "120", 705).
enter("XXI_Aprile_7_932", "117", 705).
exit("XXI_Aprile_7_932", "117", 760).
enter("XXI_Aprile_7_932", "209", 760).
exit("XXI_Aprile_7_932", "209", 875).
origin("Pepoli_11_1945", "201").
enter("Pepoli_11_1945", "201", 0).
exit("Pepoli_11_1945", "201", 135).
enter("Pepoli_11_1945", "201c", 135).
exit("Pepoli_11_1945", "201c", 170).
enter("Pepoli_11_1945", "204a[0]", 170).
exit("Pepoli_11_1945", "204a[0]", 290).
enter("Pepoli_11_1945", "124", 290).
exit("Pepoli_11_1945", "124", 335).
origin("XXI_Aprile_94_339", "122").
enter("XXI_Aprile_94_339", "122", 0).
exit("XXI_Aprile_94_339", "122", 55).
enter("XXI_Aprile_94_339", "1b", 55).
exit("XXI_Aprile_94_339", "1b", 115).
enter("XXI_Aprile_94_339", "1", 115).
exit("XXI_Aprile_94_339", "1", 150).
enter("XXI_Aprile_94_339", "204a[0]", 150).
exit("XXI_Aprile_94_339", "204a[0]", 270).
enter("XXI_Aprile_94_339", "204b[0]", 270).
exit("XXI_Aprile_94_339", "204b[0]", 275).
enter("XXI_Aprile_94_339", "54", 275).
exit("XXI_Aprile_94_339", "54", 300).
origin("XXI_Aprile_94_514", "122").
enter("XXI_Aprile_94_514", "122", 0).
exit("XXI_Aprile_94_514", "122", 100).
enter("XXI_Aprile_94_514", "1b", 100).
exit("XXI_Aprile_94_514", "1b", 160).
enter("XXI_Aprile_94_514", "1", 160).
exit("XXI_Aprile_94_514", "1", 195).
enter("XXI_Aprile_94_514", "204a[0]", 195).
exit("XXI_Aprile_94_514", "204a[0]", 315).
enter("XXI_Aprile_94_514", "204b[0]", 315).
exit("XXI_Aprile_94_514", "204b[0]", 320).
enter("XXI_Aprile_94_514", "54", 320).
exit("XXI_Aprile_94_514", "54", 345).
origin("Vittorio_Veneto_10_387", "161").
enter("Vittorio_Veneto_10_387", "161", 0).
exit("Vittorio_Veneto_10_387", "161", 50).
enter("Vittorio_Veneto_10_387", "122", 50).
exit("Vittorio_Veneto_10_387", "122", 105).
enter("Vittorio_Veneto_10_387", "1b", 105).
exit("Vittorio_Veneto_10_387", "1b", 165).
enter("Vittorio_Veneto_10_387", "1", 165).
exit("Vittorio_Veneto_10_387", "1", 200).
enter("Vittorio_Veneto_10_387", "204a[0]", 200).
exit("Vittorio_Veneto_10_387", "204a[0]", 320).
enter("Vittorio_Veneto_10_387", "204b[0]", 320).
exit("Vittorio_Veneto_10_387", "204b[0]", 325).
enter("Vittorio_Veneto_10_387", "204[1][0]", 325).
exit("Vittorio_Veneto_10_387", "204[1][0]", 360).
enter("Vittorio_Veneto_10_387", "204[1][1]", 360).
exit("Vittorio_Veneto_10_387", "204[1][1]", 415).
origin("Pepoli_3_1242", "159").
enter("Pepoli_3_1242", "159", 0).
exit("Pepoli_3_1242", "159", 105).
enter("Pepoli_3_1242", "42", 105).
exit("Pepoli_3_1242", "42", 125).
enter("Pepoli_3_1242", "39", 125).
exit("Pepoli_3_1242", "39", 145).
enter("Pepoli_3_1242", "35", 145).
exit("Pepoli_3_1242", "35", 200).
enter("Pepoli_3_1242", "38", 200).
exit("Pepoli_3_1242", "38", 260).
enter("Pepoli_3_1242", "15", 260).
exit("Pepoli_3_1242", "15", 335).
enter("Pepoli_3_1242", "14", 335).
exit("Pepoli_3_1242", "14", 375).
origin("Audinot_10_139", "204[1][1]").
enter("Audinot_10_139", "204[1][1]", 0).
exit("Audinot_10_139", "204[1][1]", 55).
origin("XXI_Aprile_7_1002", "36").
enter("XXI_Aprile_7_1002", "36", 0).
exit("XXI_Aprile_7_1002", "36", 10).
enter("XXI_Aprile_7_1002", "40", 10).
exit("XXI_Aprile_7_1002", "40", 15).
enter("XXI_Aprile_7_1002", "41", 15).
exit("XXI_Aprile_7_1002", "41", 25).
enter("XXI_Aprile_7_1002", "160", 25).
exit("XXI_Aprile_7_1002", "160", 50).
enter("XXI_Aprile_7_1002", "61", 50).
exit("XXI_Aprile_7_1002", "61", 70).
enter("XXI_Aprile_7_1002", "58[0]", 70).
exit("XXI_Aprile_7_1002", "58[0]", 75).
enter("XXI_Aprile_7_1002", "58[1]", 75).
exit("XXI_Aprile_7_1002", "58[1]", 90).
enter("XXI_Aprile_7_1002", "66", 90).
exit("XXI_Aprile_7_1002", "66", 100).
enter("XXI_Aprile_7_1002", "117", 100).
exit("XXI_Aprile_7_1002", "117", 145).
enter("XXI_Aprile_7_1002", "209", 145).
exit("XXI_Aprile_7_1002", "209", 180).
origin("Pepoli_11_1642", "201").
enter("Pepoli_11_1642", "201", 0).
exit("Pepoli_11_1642", "201", 135).
enter("Pepoli_11_1642", "201c", 135).
exit("Pepoli_11_1642", "201c", 170).
enter("Pepoli_11_1642", "204a[0]", 170).
exit("Pepoli_11_1642", "204a[0]", 290).
enter("Pepoli_11_1642", "124", 290).
exit("Pepoli_11_1642", "124", 335).
origin("Pepoli_3_1105", "38").
enter("Pepoli_3_1105", "38", 0).
exit("Pepoli_3_1105", "38", 60).
enter("Pepoli_3_1105", "15", 60).
exit("Pepoli_3_1105", "15", 135).
enter("Pepoli_3_1105", "14", 135).
exit("Pepoli_3_1105", "14", 175).
origin("Pepoli_12_899", "180").
enter("Pepoli_12_899", "180", 0).
exit("Pepoli_12_899", "180", 95).
origin("XXI_Aprile_7_722", "[116|46]").
enter("XXI_Aprile_7_722", "[116|46]", 0).
exit("XXI_Aprile_7_722", "[116|46]", 65).
enter("XXI_Aprile_7_722", "113", 65).
exit("XXI_Aprile_7_722", "113", 135).
enter("XXI_Aprile_7_722", "209", 135).
exit("XXI_Aprile_7_722", "209", 170).
origin("Audinot_7_163", "131").
enter("Audinot_7_163", "131", 0).
exit("Audinot_7_163", "131", 80).
enter("Audinot_7_163", "117", 80).
exit("Audinot_7_163", "117", 125).
enter("Audinot_7_163", "209", 125).
exit("Audinot_7_163", "209", 225).
origin("Audinot_10_159", "131").
enter("Audinot_10_159", "131", 0).
exit("Audinot_10_159", "131", 80).
enter("Audinot_10_159", "119", 80).
exit("Audinot_10_159", "119", 95).
enter("Audinot_10_159", "[116|46]", 95).
exit("Audinot_10_159", "[116|46]", 190).
enter("Audinot_10_159", "201", 190).
exit("Audinot_10_159", "201", 325).
enter("Audinot_10_159", "201c", 325).
exit("Audinot_10_159", "201c", 360).
enter("Audinot_10_159", "204a[0]", 360).
exit("Audinot_10_159", "204a[0]", 480).
enter("Audinot_10_159", "204b[0]", 480).
exit("Audinot_10_159", "204b[0]", 485).
enter("Audinot_10_159", "204[1][0]", 485).
exit("Audinot_10_159", "204[1][0]", 520).
enter("Audinot_10_159", "204[1][1]", 520).
exit("Audinot_10_159", "204[1][1]", 555).
origin("XXI_Aprile_1_943", "191").
enter("XXI_Aprile_1_943", "191", 0).
exit("XXI_Aprile_1_943", "191", 45).
enter("XXI_Aprile_1_943", "[17|71]", 45).
exit("XXI_Aprile_1_943", "[17|71]", 100).
enter("XXI_Aprile_1_943", "86", 100).
exit("XXI_Aprile_1_943", "86", 130).
origin("Pepoli_11_2053", "201").
enter("Pepoli_11_2053", "201", 0).
exit("Pepoli_11_2053", "201", 135).
enter("Pepoli_11_2053", "201c", 135).
exit("Pepoli_11_2053", "201c", 170).
enter("Pepoli_11_2053", "204a[0]", 170).
exit("Pepoli_11_2053", "204a[0]", 290).
enter("Pepoli_11_2053", "124", 290).
exit("Pepoli_11_2053", "124", 335).
origin("Pepoli_3_1060", "38").
enter("Pepoli_3_1060", "38", 0).
exit("Pepoli_3_1060", "38", 60).
enter("Pepoli_3_1060", "15", 60).
exit("Pepoli_3_1060", "15", 135).
enter("Pepoli_3_1060", "14", 135).
exit("Pepoli_3_1060", "14", 175).
origin("XXI_Aprile_94_985", "[189[0]|189[1][0]+20000|189[1][1]]").
enter("XXI_Aprile_94_985", "[189[0]|189[1][0]+20000|189[1][1]]", 0).
exit("XXI_Aprile_94_985", "[189[0]|189[1][0]+20000|189[1][1]]", 65).
enter("XXI_Aprile_94_985", "191", 65).
exit("XXI_Aprile_94_985", "191", 165).
enter("XXI_Aprile_94_985", "69", 165).
exit("XXI_Aprile_94_985", "69", 270).
enter("XXI_Aprile_94_985", "161", 270).
exit("XXI_Aprile_94_985", "161", 335).
enter("XXI_Aprile_94_985", "122", 335).
exit("XXI_Aprile_94_985", "122", 405).
enter("XXI_Aprile_94_985", "1b", 405).
exit("XXI_Aprile_94_985", "1b", 785).
enter("XXI_Aprile_94_985", "1", 785).
exit("XXI_Aprile_94_985", "1", 1330).
enter("XXI_Aprile_94_985", "204a[0]", 1330).
exit("XXI_Aprile_94_985", "204a[0]", 1685).
enter("XXI_Aprile_94_985", "204b[0]", 1685).
exit("XXI_Aprile_94_985", "204b[0]", 2215).
enter("XXI_Aprile_94_985", "54", 2215).
exit("XXI_Aprile_94_985", "54", 2295).
origin("Costa_200_1216", "204a[0]").
enter("Costa_200_1216", "204a[0]", 0).
exit("Costa_200_1216", "204a[0]", 120).
enter("Costa_200_1216", "204b[0]", 120).
exit("Costa_200_1216", "204b[0]", 125).
enter("Costa_200_1216", "204[1][0]", 125).
exit("Costa_200_1216", "204[1][0]", 160).
enter("Costa_200_1216", "204[1][1]", 160).
exit("Costa_200_1216", "204[1][1]", 195).
origin("Pepoli_11_2095", "43[1]").
enter("Pepoli_11_2095", "43[1]", 0).
exit("Pepoli_11_2095", "43[1]", 70).
enter("Pepoli_11_2095", "201", 70).
exit("Pepoli_11_2095", "201", 205).
enter("Pepoli_11_2095", "201c", 205).
exit("Pepoli_11_2095", "201c", 240).
enter("Pepoli_11_2095", "204a[0]", 240).
exit("Pepoli_11_2095", "204a[0]", 360).
enter("Pepoli_11_2095", "124", 360).
exit("Pepoli_11_2095", "124", 405).
origin("Pepoli_11_1547", "201").
enter("Pepoli_11_1547", "201", 0).
exit("Pepoli_11_1547", "201", 135).
enter("Pepoli_11_1547", "201c", 135).
exit("Pepoli_11_1547", "201c", 170).
enter("Pepoli_11_1547", "204a[0]", 170).
exit("Pepoli_11_1547", "204a[0]", 290).
enter("Pepoli_11_1547", "124", 290).
exit("Pepoli_11_1547", "124", 335).
origin("Audinot_7_164", "131").
enter("Audinot_7_164", "131", 0).
exit("Audinot_7_164", "131", 80).
enter("Audinot_7_164", "117", 80).
exit("Audinot_7_164", "117", 125).
enter("Audinot_7_164", "209", 125).
exit("Audinot_7_164", "209", 225).
origin("Pepoli_3_1560", "[210|43[0]]").
enter("Pepoli_3_1560", "[210|43[0]]", 0).
exit("Pepoli_3_1560", "[210|43[0]]", 80).
enter("Pepoli_3_1560", "118", 80).
exit("Pepoli_3_1560", "118", 140).
enter("Pepoli_3_1560", "65", 140).
exit("Pepoli_3_1560", "65", 185).
enter("Pepoli_3_1560", "57[0]", 185).
exit("Pepoli_3_1560", "57[0]", 270).
enter("Pepoli_3_1560", "57[1]", 270).
exit("Pepoli_3_1560", "57[1]", 285).
enter("Pepoli_3_1560", "62", 285).
exit("Pepoli_3_1560", "62", 335).
enter("Pepoli_3_1560", "159", 335).
exit("Pepoli_3_1560", "159", 440).
enter("Pepoli_3_1560", "42", 440).
exit("Pepoli_3_1560", "42", 460).
enter("Pepoli_3_1560", "39", 460).
exit("Pepoli_3_1560", "39", 480).
enter("Pepoli_3_1560", "35", 480).
exit("Pepoli_3_1560", "35", 535).
enter("Pepoli_3_1560", "38", 535).
exit("Pepoli_3_1560", "38", 595).
enter("Pepoli_3_1560", "15", 595).
exit("Pepoli_3_1560", "15", 670).
enter("Pepoli_3_1560", "14", 670).
exit("Pepoli_3_1560", "14", 710).
origin("XXI_Aprile_102_906", "74").
enter("XXI_Aprile_102_906", "74", 0).
exit("XXI_Aprile_102_906", "74", 145).
enter("XXI_Aprile_102_906", "72[1]", 145).
exit("XXI_Aprile_102_906", "72[1]", 185).
enter("XXI_Aprile_102_906", "69", 185).
exit("XXI_Aprile_102_906", "69", 280).
enter("XXI_Aprile_102_906", "161", 280).
exit("XXI_Aprile_102_906", "161", 330).
enter("XXI_Aprile_102_906", "122", 330).
exit("XXI_Aprile_102_906", "122", 430).
enter("XXI_Aprile_102_906", "1b", 430).
exit("XXI_Aprile_102_906", "1b", 490).
enter("XXI_Aprile_102_906", "1", 490).
exit("XXI_Aprile_102_906", "1", 525).
enter("XXI_Aprile_102_906", "204a[0]", 525).
exit("XXI_Aprile_102_906", "204a[0]", 645).
enter("XXI_Aprile_102_906", "204b[0]", 645).
exit("XXI_Aprile_102_906", "204b[0]", 650).
enter("XXI_Aprile_102_906", "204[1][0]", 650).
exit("XXI_Aprile_102_906", "204[1][0]", 685).
enter("XXI_Aprile_102_906", "204[1][1]", 685).
exit("XXI_Aprile_102_906", "204[1][1]", 720).
origin("XXI_Aprile_9_761", "69").
enter("XXI_Aprile_9_761", "69", 0).
exit("XXI_Aprile_9_761", "69", 95).
enter("XXI_Aprile_9_761", "161", 95).
exit("XXI_Aprile_9_761", "161", 145).
enter("XXI_Aprile_9_761", "122", 145).
exit("XXI_Aprile_9_761", "122", 245).
enter("XXI_Aprile_9_761", "1b", 245).
exit("XXI_Aprile_9_761", "1b", 305).
enter("XXI_Aprile_9_761", "1", 305).
exit("XXI_Aprile_9_761", "1", 340).
enter("XXI_Aprile_9_761", "204a[0]", 340).
exit("XXI_Aprile_9_761", "204a[0]", 460).
enter("XXI_Aprile_9_761", "204b[0]", 460).
exit("XXI_Aprile_9_761", "204b[0]", 465).
enter("XXI_Aprile_9_761", "54", 465).
exit("XXI_Aprile_9_761", "54", 490).
origin("Pepoli_11_1808", "204a[0]").
enter("Pepoli_11_1808", "204a[0]", 0).
exit("Pepoli_11_1808", "204a[0]", 120).
enter("Pepoli_11_1808", "124", 120).
exit("Pepoli_11_1808", "124", 165).
origin("Pepoli_1_1524", "[210|43[0]]").
enter("Pepoli_1_1524", "[210|43[0]]", 0).
exit("Pepoli_1_1524", "[210|43[0]]", 65).
enter("Pepoli_1_1524", "118", 65).
exit("Pepoli_1_1524", "118", 125).
enter("Pepoli_1_1524", "65", 125).
exit("Pepoli_1_1524", "65", 170).
enter("Pepoli_1_1524", "57[0]", 170).
exit("Pepoli_1_1524", "57[0]", 215).
enter("Pepoli_1_1524", "57[1]", 215).
exit("Pepoli_1_1524", "57[1]", 230).
enter("Pepoli_1_1524", "62", 230).
exit("Pepoli_1_1524", "62", 280).
enter("Pepoli_1_1524", "159", 280).
exit("Pepoli_1_1524", "159", 385).
enter("Pepoli_1_1524", "42", 385).
exit("Pepoli_1_1524", "42", 405).
enter("Pepoli_1_1524", "39", 405).
exit("Pepoli_1_1524", "39", 425).
enter("Pepoli_1_1524", "35", 425).
exit("Pepoli_1_1524", "35", 480).
enter("Pepoli_1_1524", "38", 480).
exit("Pepoli_1_1524", "38", 540).
enter("Pepoli_1_1524", "50", 540).
exit("Pepoli_1_1524", "50", 555).
enter("Pepoli_1_1524", "19", 555).
exit("Pepoli_1_1524", "19", 575).
enter("Pepoli_1_1524", "[22|59]", 575).
exit("Pepoli_1_1524", "[22|59]", 595).
enter("Pepoli_1_1524", "(53cd|53[0]|53[1][0])", 595).
exit("Pepoli_1_1524", "(53cd|53[0]|53[1][0])", 615).
enter("Pepoli_1_1524", "79", 615).
exit("Pepoli_1_1524", "79", 635).
enter("Pepoli_1_1524", "[68|11]", 635).
exit("Pepoli_1_1524", "[68|11]", 680).
enter("Pepoli_1_1524", "86", 680).
exit("Pepoli_1_1524", "86", 710).
origin("XXI_Aprile_7_956", "[189[0]|189[1][0]+20000|189[1][1]]").
enter("XXI_Aprile_7_956", "[189[0]|189[1][0]+20000|189[1][1]]", 0).
exit("XXI_Aprile_7_956", "[189[0]|189[1][0]+20000|189[1][1]]", 125).
enter("XXI_Aprile_7_956", "188", 125).
exit("XXI_Aprile_7_956", "188", 195).
enter("XXI_Aprile_7_956", "[87[0]|20001+87[1][0]|87[1][1]]", 195).
exit("XXI_Aprile_7_956", "[87[0]|20001+87[1][0]|87[1][1]]", 215).
enter("XXI_Aprile_7_956", "m90", 215).
exit("XXI_Aprile_7_956", "m90", 230).
enter("XXI_Aprile_7_956", "[89[0]|20002+89[1][0]|89[1][1]]", 230).
exit("XXI_Aprile_7_956", "[89[0]|20002+89[1][0]|89[1][1]]", 305).
enter("XXI_Aprile_7_956", "91", 305).
exit("XXI_Aprile_7_956", "91", 325).
enter("XXI_Aprile_7_956", "186", 325).
exit("XXI_Aprile_7_956", "186", 355).
enter("XXI_Aprile_7_956", "[109[0]|109[1][0]+20003|109[1][1]]", 355).
exit("XXI_Aprile_7_956", "[109[0]|109[1][0]+20003|109[1][1]]", 390).
enter("XXI_Aprile_7_956", "[116|46]", 390).
exit("XXI_Aprile_7_956", "[116|46]", 455).
enter("XXI_Aprile_7_956", "113", 455).
exit("XXI_Aprile_7_956", "113", 495).
enter("XXI_Aprile_7_956", "209", 495).
exit("XXI_Aprile_7_956", "209", 530).
origin("Togliatti_9_665", "85").
enter("Togliatti_9_665", "85", 0).
exit("Togliatti_9_665", "85", 60).
enter("Togliatti_9_665", "72[0]", 60).
exit("Togliatti_9_665", "72[0]", 135).
enter("Togliatti_9_665", "72[1]", 135).
exit("Togliatti_9_665", "72[1]", 175).
enter("Togliatti_9_665", "69", 175).
exit("Togliatti_9_665", "69", 270).
enter("Togliatti_9_665", "161", 270).
exit("Togliatti_9_665", "161", 320).
enter("Togliatti_9_665", "122", 320).
exit("Togliatti_9_665", "122", 420).
enter("Togliatti_9_665", "1b", 420).
exit("Togliatti_9_665", "1b", 480).
enter("Togliatti_9_665", "1", 480).
exit("Togliatti_9_665", "1", 515).
enter("Togliatti_9_665", "204a[0]", 515).
exit("Togliatti_9_665", "204a[0]", 635).
enter("Togliatti_9_665", "204b[0]", 635).
exit("Togliatti_9_665", "204b[0]", 640).
enter("Togliatti_9_665", "54", 640).
exit("Togliatti_9_665", "54", 680).
origin("XXI_Aprile_7_962", "117").
enter("XXI_Aprile_7_962", "117", 0).
exit("XXI_Aprile_7_962", "117", 50).
enter("XXI_Aprile_7_962", "209", 50).
exit("XXI_Aprile_7_962", "209", 90).
origin("Pepoli_11_1865", "204a[0]").
enter("Pepoli_11_1865", "204a[0]", 0).
exit("Pepoli_11_1865", "204a[0]", 120).
enter("Pepoli_11_1865", "124", 120).
exit("Pepoli_11_1865", "124", 165).
origin("Vittorio_Veneto_1_570", "[181|18]").
enter("Vittorio_Veneto_1_570", "[181|18]", 0).
exit("Vittorio_Veneto_1_570", "[181|18]", 75).
enter("Vittorio_Veneto_1_570", "[17|71]", 75).
exit("Vittorio_Veneto_1_570", "[17|71]", 130).
enter("Vittorio_Veneto_1_570", "86", 130).
exit("Vittorio_Veneto_1_570", "86", 160).
origin("XXI_Aprile_94_756", "1b").
enter("XXI_Aprile_94_756", "1b", 0).
exit("XXI_Aprile_94_756", "1b", 60).
enter("XXI_Aprile_94_756", "1", 60).
exit("XXI_Aprile_94_756", "1", 95).
enter("XXI_Aprile_94_756", "204a[0]", 95).
exit("XXI_Aprile_94_756", "204a[0]", 215).
enter("XXI_Aprile_94_756", "204b[0]", 215).
exit("XXI_Aprile_94_756", "204b[0]", 220).
enter("XXI_Aprile_94_756", "54", 220).
exit("XXI_Aprile_94_756", "54", 245).
origin("XXI_Aprile_7_901", "[89[0]|20002+89[1][0]|89[1][1]]").
enter("XXI_Aprile_7_901", "[89[0]|20002+89[1][0]|89[1][1]]", 0).
exit("XXI_Aprile_7_901", "[89[0]|20002+89[1][0]|89[1][1]]", 40).
enter("XXI_Aprile_7_901", "91", 40).
exit("XXI_Aprile_7_901", "91", 50).
enter("XXI_Aprile_7_901", "186", 50).
exit("XXI_Aprile_7_901", "186", 65).
enter("XXI_Aprile_7_901", "[109[0]|109[1][0]+20003|109[1][1]]", 65).
exit("XXI_Aprile_7_901", "[109[0]|109[1][0]+20003|109[1][1]]", 75).
enter("XXI_Aprile_7_901", "120", 75).
exit("XXI_Aprile_7_901", "120", 100).
enter("XXI_Aprile_7_901", "117", 100).
exit("XXI_Aprile_7_901", "117", 165).
enter("XXI_Aprile_7_901", "209", 165).
exit("XXI_Aprile_7_901", "209", 200).
origin("Togliatti_10_615", "72[0]").
enter("Togliatti_10_615", "72[0]", 0).
exit("Togliatti_10_615", "72[0]", 75).
enter("Togliatti_10_615", "72[1]", 75).
exit("Togliatti_10_615", "72[1]", 115).
enter("Togliatti_10_615", "69", 115).
exit("Togliatti_10_615", "69", 210).
enter("Togliatti_10_615", "161", 210).
exit("Togliatti_10_615", "161", 260).
enter("Togliatti_10_615", "122", 260).
exit("Togliatti_10_615", "122", 315).
enter("Togliatti_10_615", "1b", 315).
exit("Togliatti_10_615", "1b", 375).
enter("Togliatti_10_615", "1", 375).
exit("Togliatti_10_615", "1", 410).
enter("Togliatti_10_615", "204a[0]", 410).
exit("Togliatti_10_615", "204a[0]", 530).
enter("Togliatti_10_615", "204b[0]", 530).
exit("Togliatti_10_615", "204b[0]", 535).
enter("Togliatti_10_615", "204[1][0]", 535).
exit("Togliatti_10_615", "204[1][0]", 570).
enter("Togliatti_10_615", "204[1][1]", 570).
exit("Togliatti_10_615", "204[1][1]", 625).
origin("Vittorio_Veneto_2_603", "224[1]").
enter("Vittorio_Veneto_2_603", "224[1]", 0).
exit("Vittorio_Veneto_2_603", "224[1]", 60).
enter("Vittorio_Veneto_2_603", "[181|18]", 60).
exit("Vittorio_Veneto_2_603", "[181|18]", 135).
enter("Vittorio_Veneto_2_603", "[17|71]", 135).
exit("Vittorio_Veneto_2_603", "[17|71]", 190).
enter("Vittorio_Veneto_2_603", "67", 190).
exit("Vittorio_Veneto_2_603", "67", 205).
enter("Vittorio_Veneto_2_603", "[80|127]", 205).
exit("Vittorio_Veneto_2_603", "[80|127]", 240).
enter("Vittorio_Veneto_2_603", "(77[1][0])", 240).
exit("Vittorio_Veneto_2_603", "(77[1][0])", 260).
enter("Vittorio_Veneto_2_603", "77[1][1]", 260).
exit("Vittorio_Veneto_2_603", "77[1][1]", 300).
origin("Pepoli_11_1982", "201").
enter("Pepoli_11_1982", "201", 0).
exit("Pepoli_11_1982", "201", 135).
enter("Pepoli_11_1982", "201c", 135).
exit("Pepoli_11_1982", "201c", 170).
enter("Pepoli_11_1982", "204a[0]", 170).
exit("Pepoli_11_1982", "204a[0]", 290).
enter("Pepoli_11_1982", "124", 290).
exit("Pepoli_11_1982", "124", 335).
origin("Vittorio_Veneto_2_648", "224[0]").
enter("Vittorio_Veneto_2_648", "224[0]", 0).
exit("Vittorio_Veneto_2_648", "224[0]", 140).
enter("Vittorio_Veneto_2_648", "224[1]", 140).
exit("Vittorio_Veneto_2_648", "224[1]", 200).
enter("Vittorio_Veneto_2_648", "[181|18]", 200).
exit("Vittorio_Veneto_2_648", "[181|18]", 275).
enter("Vittorio_Veneto_2_648", "[17|71]", 275).
exit("Vittorio_Veneto_2_648", "[17|71]", 330).
enter("Vittorio_Veneto_2_648", "67", 330).
exit("Vittorio_Veneto_2_648", "67", 345).
enter("Vittorio_Veneto_2_648", "[80|127]", 345).
exit("Vittorio_Veneto_2_648", "[80|127]", 380).
enter("Vittorio_Veneto_2_648", "(77[1][0])", 380).
exit("Vittorio_Veneto_2_648", "(77[1][0])", 400).
enter("Vittorio_Veneto_2_648", "77[1][1]", 400).
exit("Vittorio_Veneto_2_648", "77[1][1]", 440).
origin("Costa_200_1100", "161").
enter("Costa_200_1100", "161", 0).
exit("Costa_200_1100", "161", 50).
enter("Costa_200_1100", "122", 50).
exit("Costa_200_1100", "122", 165).
enter("Costa_200_1100", "1b", 165).
exit("Costa_200_1100", "1b", 245).
enter("Costa_200_1100", "1", 245).
exit("Costa_200_1100", "1", 900).
enter("Costa_200_1100", "204a[0]", 900).
exit("Costa_200_1100", "204a[0]", 1690).
enter("Costa_200_1100", "204b[0]", 1690).
exit("Costa_200_1100", "204b[0]", 1720).
enter("Costa_200_1100", "204[1][0]", 1720).
exit("Costa_200_1100", "204[1][0]", 1810).
enter("Costa_200_1100", "204[1][1]", 1810).
exit("Costa_200_1100", "204[1][1]", 1895).
origin("Pepoli_12_1010", "19").
enter("Pepoli_12_1010", "19", 0).
exit("Pepoli_12_1010", "19", 35).
enter("Pepoli_12_1010", "[22|59]", 35).
exit("Pepoli_12_1010", "[22|59]", 105).
enter("Pepoli_12_1010", "(53cd|53[0]|53[1][0])", 105).
exit("Pepoli_12_1010", "(53cd|53[0]|53[1][0])", 125).
enter("Pepoli_12_1010", "79", 125).
exit("Pepoli_12_1010", "79", 195).
enter("Pepoli_12_1010", "[68|11]", 195).
exit("Pepoli_12_1010", "[68|11]", 250).
enter("Pepoli_12_1010", "84", 250).
exit("Pepoli_12_1010", "84", 270).
enter("Pepoli_12_1010", "180", 270).
exit("Pepoli_12_1010", "180", 365).
origin("Pepoli_3_1588", "[210|43[0]]").
enter("Pepoli_3_1588", "[210|43[0]]", 0).
exit("Pepoli_3_1588", "[210|43[0]]", 80).
enter("Pepoli_3_1588", "118", 80).
exit("Pepoli_3_1588", "118", 140).
enter("Pepoli_3_1588", "65", 140).
exit("Pepoli_3_1588", "65", 185).
enter("Pepoli_3_1588", "57[0]", 185).
exit("Pepoli_3_1588", "57[0]", 270).
enter("Pepoli_3_1588", "57[1]", 270).
exit("Pepoli_3_1588", "57[1]", 285).
enter("Pepoli_3_1588", "62", 285).
exit("Pepoli_3_1588", "62", 335).
enter("Pepoli_3_1588", "159", 335).
exit("Pepoli_3_1588", "159", 440).
enter("Pepoli_3_1588", "42", 440).
exit("Pepoli_3_1588", "42", 460).
enter("Pepoli_3_1588", "39", 460).
exit("Pepoli_3_1588", "39", 480).
enter("Pepoli_3_1588", "35", 480).
exit("Pepoli_3_1588", "35", 535).
enter("Pepoli_3_1588", "38", 535).
exit("Pepoli_3_1588", "38", 595).
enter("Pepoli_3_1588", "15", 595).
exit("Pepoli_3_1588", "15", 670).
enter("Pepoli_3_1588", "14", 670).
exit("Pepoli_3_1588", "14", 710).
origin("Togliatti_9_621", "85").
enter("Togliatti_9_621", "85", 0).
exit("Togliatti_9_621", "85", 110).
enter("Togliatti_9_621", "72[0]", 110).
exit("Togliatti_9_621", "72[0]", 185).
enter("Togliatti_9_621", "72[1]", 185).
exit("Togliatti_9_621", "72[1]", 225).
enter("Togliatti_9_621", "69", 225).
exit("Togliatti_9_621", "69", 320).
enter("Togliatti_9_621", "161", 320).
exit("Togliatti_9_621", "161", 370).
enter("Togliatti_9_621", "122", 370).
exit("Togliatti_9_621", "122", 425).
enter("Togliatti_9_621", "1b", 425).
exit("Togliatti_9_621", "1b", 485).
enter("Togliatti_9_621", "1", 485).
exit("Togliatti_9_621", "1", 520).
enter("Togliatti_9_621", "204a[0]", 520).
exit("Togliatti_9_621", "204a[0]", 640).
enter("Togliatti_9_621", "204b[0]", 640).
exit("Togliatti_9_621", "204b[0]", 645).
enter("Togliatti_9_621", "54", 645).
exit("Togliatti_9_621", "54", 670).
origin("XXI_Aprile_94_799", "74").
enter("XXI_Aprile_94_799", "74", 0).
exit("XXI_Aprile_94_799", "74", 95).
enter("XXI_Aprile_94_799", "72[1]", 95).
exit("XXI_Aprile_94_799", "72[1]", 135).
enter("XXI_Aprile_94_799", "69", 135).
exit("XXI_Aprile_94_799", "69", 230).
enter("XXI_Aprile_94_799", "161", 230).
exit("XXI_Aprile_94_799", "161", 280).
enter("XXI_Aprile_94_799", "122", 280).
exit("XXI_Aprile_94_799", "122", 380).
enter("XXI_Aprile_94_799", "1b", 380).
exit("XXI_Aprile_94_799", "1b", 440).
enter("XXI_Aprile_94_799", "1", 440).
exit("XXI_Aprile_94_799", "1", 475).
enter("XXI_Aprile_94_799", "204a[0]", 475).
exit("XXI_Aprile_94_799", "204a[0]", 595).
enter("XXI_Aprile_94_799", "204b[0]", 595).
exit("XXI_Aprile_94_799", "204b[0]", 600).
enter("XXI_Aprile_94_799", "54", 600).
exit("XXI_Aprile_94_799", "54", 625).
origin("XXI_Aprile_104_961", "[189[0]|189[1][0]+20000|189[1][1]]").
enter("XXI_Aprile_104_961", "[189[0]|189[1][0]+20000|189[1][1]]", 0).
exit("XXI_Aprile_104_961", "[189[0]|189[1][0]+20000|189[1][1]]", 100).
enter("XXI_Aprile_104_961", "188", 100).
exit("XXI_Aprile_104_961", "188", 150).
enter("XXI_Aprile_104_961", "[87[0]|20001+87[1][0]|87[1][1]]", 150).
exit("XXI_Aprile_104_961", "[87[0]|20001+87[1][0]|87[1][1]]", 190).
enter("XXI_Aprile_104_961", "m90", 190).
exit("XXI_Aprile_104_961", "m90", 200).
enter("XXI_Aprile_104_961", "[89[0]|20002+89[1][0]|89[1][1]]", 200).
exit("XXI_Aprile_104_961", "[89[0]|20002+89[1][0]|89[1][1]]", 215).
enter("XXI_Aprile_104_961", "91", 215).
exit("XXI_Aprile_104_961", "91", 245).
enter("XXI_Aprile_104_961", "186", 245).
exit("XXI_Aprile_104_961", "186", 260).
enter("XXI_Aprile_104_961", "[109[0]|109[1][0]+20003|109[1][1]]", 260).
exit("XXI_Aprile_104_961", "[109[0]|109[1][0]+20003|109[1][1]]", 280).
enter("XXI_Aprile_104_961", "[116|46]", 280).
exit("XXI_Aprile_104_961", "[116|46]", 340).
enter("XXI_Aprile_104_961", "201", 340).
exit("XXI_Aprile_104_961", "201", 525).
enter("XXI_Aprile_104_961", "201c", 525).
exit("XXI_Aprile_104_961", "201c", 560).
enter("XXI_Aprile_104_961", "204a[0]", 560).
exit("XXI_Aprile_104_961", "204a[0]", 1015).
enter("XXI_Aprile_104_961", "204b[0]", 1015).
exit("XXI_Aprile_104_961", "204b[0]", 1055).
enter("XXI_Aprile_104_961", "204[1][0]", 1055).
exit("XXI_Aprile_104_961", "204[1][0]", 1130).
enter("XXI_Aprile_104_961", "204[1][1]", 1130).
exit("XXI_Aprile_104_961", "204[1][1]", 1210).
origin("XXI_Aprile_9_628", "161").
enter("XXI_Aprile_9_628", "161", 0).
exit("XXI_Aprile_9_628", "161", 50).
enter("XXI_Aprile_9_628", "122", 50).
exit("XXI_Aprile_9_628", "122", 150).
enter("XXI_Aprile_9_628", "1b", 150).
exit("XXI_Aprile_9_628", "1b", 210).
enter("XXI_Aprile_9_628", "1", 210).
exit("XXI_Aprile_9_628", "1", 245).
enter("XXI_Aprile_9_628", "204a[0]", 245).
exit("XXI_Aprile_9_628", "204a[0]", 365).
enter("XXI_Aprile_9_628", "204b[0]", 365).
exit("XXI_Aprile_9_628", "204b[0]", 370).
enter("XXI_Aprile_9_628", "54", 370).
exit("XXI_Aprile_9_628", "54", 410).
origin("Vittorio_Veneto_10_463", "161").
enter("Vittorio_Veneto_10_463", "161", 0).
exit("Vittorio_Veneto_10_463", "161", 50).
enter("Vittorio_Veneto_10_463", "122", 50).
exit("Vittorio_Veneto_10_463", "122", 150).
enter("Vittorio_Veneto_10_463", "1b", 150).
exit("Vittorio_Veneto_10_463", "1b", 210).
enter("Vittorio_Veneto_10_463", "1", 210).
exit("Vittorio_Veneto_10_463", "1", 245).
enter("Vittorio_Veneto_10_463", "204a[0]", 245).
exit("Vittorio_Veneto_10_463", "204a[0]", 365).
enter("Vittorio_Veneto_10_463", "204b[0]", 365).
exit("Vittorio_Veneto_10_463", "204b[0]", 370).
enter("Vittorio_Veneto_10_463", "204[1][0]", 370).
exit("Vittorio_Veneto_10_463", "204[1][0]", 405).
enter("Vittorio_Veneto_10_463", "204[1][1]", 405).
exit("Vittorio_Veneto_10_463", "204[1][1]", 605).
origin("XXI_Aprile_113_788", "69").
enter("XXI_Aprile_113_788", "69", 0).
exit("XXI_Aprile_113_788", "69", 95).
enter("XXI_Aprile_113_788", "161", 95).
exit("XXI_Aprile_113_788", "161", 145).
enter("XXI_Aprile_113_788", "122", 145).
exit("XXI_Aprile_113_788", "122", 245).
enter("XXI_Aprile_113_788", "1b", 245).
exit("XXI_Aprile_113_788", "1b", 305).
enter("XXI_Aprile_113_788", "1", 305).
exit("XXI_Aprile_113_788", "1", 340).
enter("XXI_Aprile_113_788", "204a[0]", 340).
exit("XXI_Aprile_113_788", "204a[0]", 460).
enter("XXI_Aprile_113_788", "124", 460).
exit("XXI_Aprile_113_788", "124", 505).
origin("Pepoli_2_1194", "39").
enter("Pepoli_2_1194", "39", 0).
exit("Pepoli_2_1194", "39", 20).
enter("Pepoli_2_1194", "35", 20).
exit("Pepoli_2_1194", "35", 75).
enter("Pepoli_2_1194", "38", 75).
exit("Pepoli_2_1194", "38", 135).
enter("Pepoli_2_1194", "50", 135).
exit("Pepoli_2_1194", "50", 165).
enter("Pepoli_2_1194", "19", 165).
exit("Pepoli_2_1194", "19", 200).
enter("Pepoli_2_1194", "[22|59]", 200).
exit("Pepoli_2_1194", "[22|59]", 270).
enter("Pepoli_2_1194", "(53cd|53[0]|53[1][0]|53[1][1][0]|77[1][0])", 270).
exit("Pepoli_2_1194", "(53cd|53[0]|53[1][0]|53[1][1][0]|77[1][0])", 280).
enter("Pepoli_2_1194", "77[1][1]", 280).
exit("Pepoli_2_1194", "77[1][1]", 320).
origin("Pepoli_11_1892", "43[1]").
enter("Pepoli_11_1892", "43[1]", 0).
exit("Pepoli_11_1892", "43[1]", 70).
enter("Pepoli_11_1892", "201", 70).
exit("Pepoli_11_1892", "201", 205).
enter("Pepoli_11_1892", "201c", 205).
exit("Pepoli_11_1892", "201c", 240).
enter("Pepoli_11_1892", "204a[0]", 240).
exit("Pepoli_11_1892", "204a[0]", 360).
enter("Pepoli_11_1892", "124", 360).
exit("Pepoli_11_1892", "124", 405).
origin("Costa_200_1240", "161").
enter("Costa_200_1240", "161", 0).
exit("Costa_200_1240", "161", 50).
enter("Costa_200_1240", "122", 50).
exit("Costa_200_1240", "122", 105).
enter("Costa_200_1240", "1b", 105).
exit("Costa_200_1240", "1b", 165).
enter("Costa_200_1240", "1", 165).
exit("Costa_200_1240", "1", 200).
enter("Costa_200_1240", "204a[0]", 200).
exit("Costa_200_1240", "204a[0]", 320).
enter("Costa_200_1240", "204b[0]", 320).
exit("Costa_200_1240", "204b[0]", 325).
enter("Costa_200_1240", "204[1][0]", 325).
exit("Costa_200_1240", "204[1][0]", 360).
enter("Costa_200_1240", "204[1][1]", 360).
exit("Costa_200_1240", "204[1][1]", 395).
origin("XXI_Aprile_113_706", "69").
enter("XXI_Aprile_113_706", "69", 0).
exit("XXI_Aprile_113_706", "69", 95).
enter("XXI_Aprile_113_706", "161", 95).
exit("XXI_Aprile_113_706", "161", 145).
enter("XXI_Aprile_113_706", "122", 145).
exit("XXI_Aprile_113_706", "122", 245).
enter("XXI_Aprile_113_706", "1b", 245).
exit("XXI_Aprile_113_706", "1b", 305).
enter("XXI_Aprile_113_706", "1", 305).
exit("XXI_Aprile_113_706", "1", 340).
enter("XXI_Aprile_113_706", "204a[0]", 340).
exit("XXI_Aprile_113_706", "204a[0]", 460).
enter("XXI_Aprile_113_706", "124", 460).
exit("XXI_Aprile_113_706", "124", 505).
origin("Vittorio_Veneto_2_594", "224[1]").
enter("Vittorio_Veneto_2_594", "224[1]", 0).
exit("Vittorio_Veneto_2_594", "224[1]", 60).
enter("Vittorio_Veneto_2_594", "[181|18]", 60).
exit("Vittorio_Veneto_2_594", "[181|18]", 135).
enter("Vittorio_Veneto_2_594", "[17|71]", 135).
exit("Vittorio_Veneto_2_594", "[17|71]", 190).
enter("Vittorio_Veneto_2_594", "67", 190).
exit("Vittorio_Veneto_2_594", "67", 205).
enter("Vittorio_Veneto_2_594", "[80|127]", 205).
exit("Vittorio_Veneto_2_594", "[80|127]", 225).
enter("Vittorio_Veneto_2_594", "(77[1][0])", 225).
exit("Vittorio_Veneto_2_594", "(77[1][0])", 245).
enter("Vittorio_Veneto_2_594", "77[1][1]", 245).
exit("Vittorio_Veneto_2_594", "77[1][1]", 285).
origin("XXI_Aprile_7_963", "74").
enter("XXI_Aprile_7_963", "74", 0).
exit("XXI_Aprile_7_963", "74", 295).
enter("XXI_Aprile_7_963", "72[1]", 295).
exit("XXI_Aprile_7_963", "72[1]", 355).
enter("XXI_Aprile_7_963", "69", 355).
exit("XXI_Aprile_7_963", "69", 405).
enter("XXI_Aprile_7_963", "161", 405).
exit("XXI_Aprile_7_963", "161", 425).
enter("XXI_Aprile_7_963", "194", 425).
exit("XXI_Aprile_7_963", "194", 470).
enter("XXI_Aprile_7_963", "91", 470).
exit("XXI_Aprile_7_963", "91", 490).
enter("XXI_Aprile_7_963", "186", 490).
exit("XXI_Aprile_7_963", "186", 610).
enter("XXI_Aprile_7_963", "[109[0]|109[1][0]+20003|109[1][1]]", 610).
exit("XXI_Aprile_7_963", "[109[0]|109[1][0]+20003|109[1][1]]", 620).
enter("XXI_Aprile_7_963", "120", 620).
exit("XXI_Aprile_7_963", "120", 640).
enter("XXI_Aprile_7_963", "117", 640).
exit("XXI_Aprile_7_963", "117", 720).
enter("XXI_Aprile_7_963", "209", 720).
exit("XXI_Aprile_7_963", "209", 1775).
origin("XXI_Aprile_2_990", "(53cd|53[0]|53[1][0]|53[1][1][0]|77[1][0])").
enter("XXI_Aprile_2_990", "(53cd|53[0]|53[1][0]|53[1][1][0]|77[1][0])", 0).
exit("XXI_Aprile_2_990", "(53cd|53[0]|53[1][0]|53[1][1][0]|77[1][0])", 25).
enter("XXI_Aprile_2_990", "77[1][1]", 25).
exit("XXI_Aprile_2_990", "77[1][1]", 65).
origin("Pepoli_11_1967", "43[1]").
enter("Pepoli_11_1967", "43[1]", 0).
exit("Pepoli_11_1967", "43[1]", 70).
enter("Pepoli_11_1967", "201", 70).
exit("Pepoli_11_1967", "201", 205).
enter("Pepoli_11_1967", "201c", 205).
exit("Pepoli_11_1967", "201c", 240).
enter("Pepoli_11_1967", "204a[0]", 240).
exit("Pepoli_11_1967", "204a[0]", 360).
enter("Pepoli_11_1967", "124", 360).
exit("Pepoli_11_1967", "124", 405).
origin("XXI_Aprile_93_950", "74").
enter("XXI_Aprile_93_950", "74", 0).
exit("XXI_Aprile_93_950", "74", 210).
enter("XXI_Aprile_93_950", "72[1]", 210).
exit("XXI_Aprile_93_950", "72[1]", 280).
enter("XXI_Aprile_93_950", "69", 280).
exit("XXI_Aprile_93_950", "69", 365).
enter("XXI_Aprile_93_950", "161", 365).
exit("XXI_Aprile_93_950", "161", 535).
enter("XXI_Aprile_93_950", "122", 535).
exit("XXI_Aprile_93_950", "122", 585).
enter("XXI_Aprile_93_950", "1b", 585).
exit("XXI_Aprile_93_950", "1b", 1280).
enter("XXI_Aprile_93_950", "1", 1280).
exit("XXI_Aprile_93_950", "1", 1435).
enter("XXI_Aprile_93_950", "204a[0]", 1435).
exit("XXI_Aprile_93_950", "204a[0]", 2225).
enter("XXI_Aprile_93_950", "204b[0]", 2225).
exit("XXI_Aprile_93_950", "204b[0]", 2280).
enter("XXI_Aprile_93_950", "54", 2280).
exit("XXI_Aprile_93_950", "54", 2365).
origin("XXI_Aprile_93_834", "161").
enter("XXI_Aprile_93_834", "161", 0).
exit("XXI_Aprile_93_834", "161", 60).
enter("XXI_Aprile_93_834", "122", 60).
exit("XXI_Aprile_93_834", "122", 1475).
enter("XXI_Aprile_93_834", "1b", 1475).
exit("XXI_Aprile_93_834", "1b", 1520).
enter("XXI_Aprile_93_834", "1", 1520).
exit("XXI_Aprile_93_834", "1", 2390).
enter("XXI_Aprile_93_834", "204a[0]", 2390).
exit("XXI_Aprile_93_834", "204a[0]", 2470).
enter("XXI_Aprile_93_834", "204b[0]", 2470).
exit("XXI_Aprile_93_834", "204b[0]", 2475).
enter("XXI_Aprile_93_834", "54", 2475).
exit("XXI_Aprile_93_834", "54", 2570).
origin("Togliatti_11_513", "204a[0]").
enter("Togliatti_11_513", "204a[0]", 0).
exit("Togliatti_11_513", "204a[0]", 130).
enter("Togliatti_11_513", "124", 130).
exit("Togliatti_11_513", "124", 1810).
origin("XXI_Aprile_12_921", "191").
enter("XXI_Aprile_12_921", "191", 0).
exit("XXI_Aprile_12_921", "191", 45).
enter("XXI_Aprile_12_921", "[17|71]", 45).
exit("XXI_Aprile_12_921", "[17|71]", 120).
enter("XXI_Aprile_12_921", "84", 120).
exit("XXI_Aprile_12_921", "84", 155).
enter("XXI_Aprile_12_921", "180", 155).
exit("XXI_Aprile_12_921", "180", 200).
origin("Pepoli_11_1873", "204a[0]").
enter("Pepoli_11_1873", "204a[0]", 0).
exit("Pepoli_11_1873", "204a[0]", 120).
enter("Pepoli_11_1873", "124", 120).
exit("Pepoli_11_1873", "124", 165).
origin("XXI_Aprile_1_825", "86").
enter("XXI_Aprile_1_825", "86", 0).
exit("XXI_Aprile_1_825", "86", 30).
origin("Pepoli_11_1848", "204a[0]").
enter("Pepoli_11_1848", "204a[0]", 0).
exit("Pepoli_11_1848", "204a[0]", 120).
enter("Pepoli_11_1848", "124", 120).
exit("Pepoli_11_1848", "124", 165).
origin("XXI_Aprile_7_998", "206").
enter("XXI_Aprile_7_998", "206", 0).
exit("XXI_Aprile_7_998", "206", 10).
enter("XXI_Aprile_7_998", "32", 10).
exit("XXI_Aprile_7_998", "32", 25).
enter("XXI_Aprile_7_998", "40", 25).
exit("XXI_Aprile_7_998", "40", 30).
enter("XXI_Aprile_7_998", "41", 30).
exit("XXI_Aprile_7_998", "41", 35).
enter("XXI_Aprile_7_998", "160", 35).
exit("XXI_Aprile_7_998", "160", 55).
enter("XXI_Aprile_7_998", "61", 55).
exit("XXI_Aprile_7_998", "61", 75).
enter("XXI_Aprile_7_998", "58[0]", 75).
exit("XXI_Aprile_7_998", "58[0]", 80).
enter("XXI_Aprile_7_998", "58[1]", 80).
exit("XXI_Aprile_7_998", "58[1]", 100).
enter("XXI_Aprile_7_998", "66", 100).
exit("XXI_Aprile_7_998", "66", 110).
enter("XXI_Aprile_7_998", "117", 110).
exit("XXI_Aprile_7_998", "117", 165).
enter("XXI_Aprile_7_998", "209", 165).
exit("XXI_Aprile_7_998", "209", 215).
origin("Pepoli_12_911", "180").
enter("Pepoli_12_911", "180", 0).
exit("Pepoli_12_911", "180", 95).
origin("XXI_Aprile_114_275", "204a[0]").
enter("XXI_Aprile_114_275", "204a[0]", 0).
exit("XXI_Aprile_114_275", "204a[0]", 120).
enter("XXI_Aprile_114_275", "124", 120).
exit("XXI_Aprile_114_275", "124", 165).
origin("Pepoli_1_1676", "[210|43[0]]").
enter("Pepoli_1_1676", "[210|43[0]]", 0).
exit("Pepoli_1_1676", "[210|43[0]]", 145).
enter("Pepoli_1_1676", "118", 145).
exit("Pepoli_1_1676", "118", 185).
enter("Pepoli_1_1676", "65", 185).
exit("Pepoli_1_1676", "65", 215).
enter("Pepoli_1_1676", "57[0]", 215).
exit("Pepoli_1_1676", "57[0]", 255).
enter("Pepoli_1_1676", "57[1]", 255).
exit("Pepoli_1_1676", "57[1]", 285).
enter("Pepoli_1_1676", "62", 285).
exit("Pepoli_1_1676", "62", 335).
enter("Pepoli_1_1676", "159", 335).
exit("Pepoli_1_1676", "159", 385).
enter("Pepoli_1_1676", "42", 385).
exit("Pepoli_1_1676", "42", 400).
enter("Pepoli_1_1676", "39", 400).
exit("Pepoli_1_1676", "39", 405).
enter("Pepoli_1_1676", "35", 405).
exit("Pepoli_1_1676", "35", 425).
enter("Pepoli_1_1676", "38", 425).
exit("Pepoli_1_1676", "38", 470).
enter("Pepoli_1_1676", "33", 470).
exit("Pepoli_1_1676", "33", 500).
enter("Pepoli_1_1676", "10", 500).
exit("Pepoli_1_1676", "10", 550).
enter("Pepoli_1_1676", "[13|104]", 550).
exit("Pepoli_1_1676", "[13|104]", 655).
enter("Pepoli_1_1676", "24", 655).
exit("Pepoli_1_1676", "24", 705).
enter("Pepoli_1_1676", "[22|59]", 705).
exit("Pepoli_1_1676", "[22|59]", 740).
enter("Pepoli_1_1676", "(53cd|53[0])", 740).
exit("Pepoli_1_1676", "(53cd|53[0])", 750).
enter("Pepoli_1_1676", "78[1][1]", 750).
exit("Pepoli_1_1676", "78[1][1]", 760).
enter("Pepoli_1_1676", "[189[0]|189[1][0]+20000|189[1][1]]", 760).
exit("Pepoli_1_1676", "[189[0]|189[1][0]+20000|189[1][1]]", 810).
enter("Pepoli_1_1676", "191", 810).
exit("Pepoli_1_1676", "191", 855).
enter("Pepoli_1_1676", "[17|71]", 855).
exit("Pepoli_1_1676", "[17|71]", 910).
enter("Pepoli_1_1676", "86", 910).
exit("Pepoli_1_1676", "86", 940).
origin("Pepoli_11_1712", "204a[0]").
enter("Pepoli_11_1712", "204a[0]", 0).
exit("Pepoli_11_1712", "204a[0]", 120).
enter("Pepoli_11_1712", "124", 120).
exit("Pepoli_11_1712", "124", 165).
origin("XXI_Aprile_7_952", "[189[0]|189[1][0]+20000|189[1][1]]").
enter("XXI_Aprile_7_952", "[189[0]|189[1][0]+20000|189[1][1]]", 0).
exit("XXI_Aprile_7_952", "[189[0]|189[1][0]+20000|189[1][1]]", 80).
enter("XXI_Aprile_7_952", "188", 80).
exit("XXI_Aprile_7_952", "188", 120).
enter("XXI_Aprile_7_952", "[87[0]|20001+87[1][0]|87[1][1]]", 120).
exit("XXI_Aprile_7_952", "[87[0]|20001+87[1][0]|87[1][1]]", 125).
enter("XXI_Aprile_7_952", "m90", 125).
exit("XXI_Aprile_7_952", "m90", 175).
enter("XXI_Aprile_7_952", "[89[0]|20002+89[1][0]|89[1][1]]", 175).
exit("XXI_Aprile_7_952", "[89[0]|20002+89[1][0]|89[1][1]]", 190).
enter("XXI_Aprile_7_952", "91", 190).
exit("XXI_Aprile_7_952", "91", 200).
enter("XXI_Aprile_7_952", "186", 200).
exit("XXI_Aprile_7_952", "186", 225).
enter("XXI_Aprile_7_952", "[109[0]|109[1][0]+20003|109[1][1]]", 225).
exit("XXI_Aprile_7_952", "[109[0]|109[1][0]+20003|109[1][1]]", 235).
enter("XXI_Aprile_7_952", "120", 235).
exit("XXI_Aprile_7_952", "120", 250).
enter("XXI_Aprile_7_952", "117", 250).
exit("XXI_Aprile_7_952", "117", 315).
enter("XXI_Aprile_7_952", "209", 315).
exit("XXI_Aprile_7_952", "209", 390).
origin("Pepoli_11_1853", "201").
enter("Pepoli_11_1853", "201", 0).
exit("Pepoli_11_1853", "201", 135).
enter("Pepoli_11_1853", "201c", 135).
exit("Pepoli_11_1853", "201c", 170).
enter("Pepoli_11_1853", "204a[0]", 170).
exit("Pepoli_11_1853", "204a[0]", 290).
enter("Pepoli_11_1853", "124", 290).
exit("Pepoli_11_1853", "124", 335).
origin("Costa_200_1257", "161").
enter("Costa_200_1257", "161", 0).
exit("Costa_200_1257", "161", 50).
enter("Costa_200_1257", "122", 50).
exit("Costa_200_1257", "122", 150).
enter("Costa_200_1257", "1b", 150).
exit("Costa_200_1257", "1b", 210).
enter("Costa_200_1257", "1", 210).
exit("Costa_200_1257", "1", 245).
enter("Costa_200_1257", "204a[0]", 245).
exit("Costa_200_1257", "204a[0]", 365).
enter("Costa_200_1257", "204b[0]", 365).
exit("Costa_200_1257", "204b[0]", 370).
enter("Costa_200_1257", "204[1][0]", 370).
exit("Costa_200_1257", "204[1][0]", 405).
enter("Costa_200_1257", "204[1][1]", 405).
exit("Costa_200_1257", "204[1][1]", 440).
origin("Pepoli_12_1491", "[210|43[0]]").
enter("Pepoli_12_1491", "[210|43[0]]", 0).
exit("Pepoli_12_1491", "[210|43[0]]", 185).
enter("Pepoli_12_1491", "118", 185).
exit("Pepoli_12_1491", "118", 235).
enter("Pepoli_12_1491", "65", 235).
exit("Pepoli_12_1491", "65", 330).
enter("Pepoli_12_1491", "57[0]", 330).
exit("Pepoli_12_1491", "57[0]", 350).
enter("Pepoli_12_1491", "57[1]", 350).
exit("Pepoli_12_1491", "57[1]", 425).
enter("Pepoli_12_1491", "62", 425).
exit("Pepoli_12_1491", "62", 460).
enter("Pepoli_12_1491", "159", 460).
exit("Pepoli_12_1491", "159", 515).
enter("Pepoli_12_1491", "42", 515).
exit("Pepoli_12_1491", "42", 645).
enter("Pepoli_12_1491", "39", 645).
exit("Pepoli_12_1491", "39", 685).
enter("Pepoli_12_1491", "35", 685).
exit("Pepoli_12_1491", "35", 725).
enter("Pepoli_12_1491", "38", 725).
exit("Pepoli_12_1491", "38", 750).
enter("Pepoli_12_1491", "15", 750).
exit("Pepoli_12_1491", "15", 865).
enter("Pepoli_12_1491", "24", 865).
exit("Pepoli_12_1491", "24", 880).
enter("Pepoli_12_1491", "[22|59]", 880).
exit("Pepoli_12_1491", "[22|59]", 900).
enter("Pepoli_12_1491", "(53cd|53[0])", 900).
exit("Pepoli_12_1491", "(53cd|53[0])", 910).
enter("Pepoli_12_1491", "78[1][1]", 910).
exit("Pepoli_12_1491", "78[1][1]", 920).
enter("Pepoli_12_1491", "[189[0]|189[1][0]+20000|189[1][1]]", 920).
exit("Pepoli_12_1491", "[189[0]|189[1][0]+20000|189[1][1]]", 970).
enter("Pepoli_12_1491", "191", 970).
exit("Pepoli_12_1491", "191", 1035).
enter("Pepoli_12_1491", "[17|71]", 1035).
exit("Pepoli_12_1491", "[17|71]", 1085).
enter("Pepoli_12_1491", "84", 1085).
exit("Pepoli_12_1491", "84", 1100).
enter("Pepoli_12_1491", "180", 1100).
exit("Pepoli_12_1491", "180", 1255).
origin("Pepoli_3_981", "15").
enter("Pepoli_3_981", "15", 0).
exit("Pepoli_3_981", "15", 75).
enter("Pepoli_3_981", "14", 75).
exit("Pepoli_3_981", "14", 115).
origin("Togliatti_10_664", "85").
enter("Togliatti_10_664", "85", 0).
exit("Togliatti_10_664", "85", 60).
enter("Togliatti_10_664", "72[0]", 60).
exit("Togliatti_10_664", "72[0]", 135).
enter("Togliatti_10_664", "72[1]", 135).
exit("Togliatti_10_664", "72[1]", 175).
enter("Togliatti_10_664", "69", 175).
exit("Togliatti_10_664", "69", 270).
enter("Togliatti_10_664", "161", 270).
exit("Togliatti_10_664", "161", 320).
enter("Togliatti_10_664", "122", 320).
exit("Togliatti_10_664", "122", 420).
enter("Togliatti_10_664", "1b", 420).
exit("Togliatti_10_664", "1b", 480).
enter("Togliatti_10_664", "1", 480).
exit("Togliatti_10_664", "1", 515).
enter("Togliatti_10_664", "204a[0]", 515).
exit("Togliatti_10_664", "204a[0]", 635).
enter("Togliatti_10_664", "204b[0]", 635).
exit("Togliatti_10_664", "204b[0]", 640).
enter("Togliatti_10_664", "204[1][0]", 640).
exit("Togliatti_10_664", "204[1][0]", 675).
enter("Togliatti_10_664", "204[1][1]", 675).
exit("Togliatti_10_664", "204[1][1]", 875).
origin("XXI_Aprile_9_981", "[189[0]|189[1][0]+20000|189[1][1]]").
enter("XXI_Aprile_9_981", "[189[0]|189[1][0]+20000|189[1][1]]", 0).
exit("XXI_Aprile_9_981", "[189[0]|189[1][0]+20000|189[1][1]]", 65).
enter("XXI_Aprile_9_981", "191", 65).
exit("XXI_Aprile_9_981", "191", 145).
enter("XXI_Aprile_9_981", "69", 145).
exit("XXI_Aprile_9_981", "69", 210).
enter("XXI_Aprile_9_981", "161", 210).
exit("XXI_Aprile_9_981", "161", 230).
enter("XXI_Aprile_9_981", "122", 230).
exit("XXI_Aprile_9_981", "122", 395).
enter("XXI_Aprile_9_981", "1b", 395).
exit("XXI_Aprile_9_981", "1b", 705).
enter("XXI_Aprile_9_981", "1", 705).
exit("XXI_Aprile_9_981", "1", 775).
enter("XXI_Aprile_9_981", "204a[0]", 775).
exit("XXI_Aprile_9_981", "204a[0]", 1675).
enter("XXI_Aprile_9_981", "204b[0]", 1675).
exit("XXI_Aprile_9_981", "204b[0]", 2145).
enter("XXI_Aprile_9_981", "54", 2145).
exit("XXI_Aprile_9_981", "54", 2215).
origin("Costa_50_1369", "[200|60]").
enter("Costa_50_1369", "[200|60]", 0).
exit("Costa_50_1369", "[200|60]", 135).
origin("Togliatti_9_377", "204a[0]").
enter("Togliatti_9_377", "204a[0]", 0).
exit("Togliatti_9_377", "204a[0]", 120).
enter("Togliatti_9_377", "204b[0]", 120).
exit("Togliatti_9_377", "204b[0]", 125).
enter("Togliatti_9_377", "54", 125).
exit("Togliatti_9_377", "54", 150).
origin("Audinot_12_149", "35").
enter("Audinot_12_149", "35", 0).
exit("Audinot_12_149", "35", 55).
enter("Audinot_12_149", "38", 55).
exit("Audinot_12_149", "38", 115).
enter("Audinot_12_149", "50", 115).
exit("Audinot_12_149", "50", 145).
enter("Audinot_12_149", "19", 145).
exit("Audinot_12_149", "19", 180).
enter("Audinot_12_149", "[22|59]", 180).
exit("Audinot_12_149", "[22|59]", 250).
enter("Audinot_12_149", "(53cd|53[0]|53[1][0])", 250).
exit("Audinot_12_149", "(53cd|53[0]|53[1][0])", 270).
enter("Audinot_12_149", "79", 270).
exit("Audinot_12_149", "79", 340).
enter("Audinot_12_149", "[68|11]", 340).
exit("Audinot_12_149", "[68|11]", 420).
enter("Audinot_12_149", "84", 420).
exit("Audinot_12_149", "84", 440).
enter("Audinot_12_149", "180", 440).
exit("Audinot_12_149", "180", 465).
origin("Vittorio_Veneto_1_664", "224[0]").
enter("Vittorio_Veneto_1_664", "224[0]", 0).
exit("Vittorio_Veneto_1_664", "224[0]", 140).
enter("Vittorio_Veneto_1_664", "224[1]", 140).
exit("Vittorio_Veneto_1_664", "224[1]", 200).
enter("Vittorio_Veneto_1_664", "[181|18]", 200).
exit("Vittorio_Veneto_1_664", "[181|18]", 275).
enter("Vittorio_Veneto_1_664", "[17|71]", 275).
exit("Vittorio_Veneto_1_664", "[17|71]", 330).
enter("Vittorio_Veneto_1_664", "86", 330).
exit("Vittorio_Veneto_1_664", "86", 360).
origin("XXI_Aprile_102_588", "161").
enter("XXI_Aprile_102_588", "161", 0).
exit("XXI_Aprile_102_588", "161", 90).
enter("XXI_Aprile_102_588", "122", 90).
exit("XXI_Aprile_102_588", "122", 190).
enter("XXI_Aprile_102_588", "1b", 190).
exit("XXI_Aprile_102_588", "1b", 250).
enter("XXI_Aprile_102_588", "1", 250).
exit("XXI_Aprile_102_588", "1", 285).
enter("XXI_Aprile_102_588", "204a[0]", 285).
exit("XXI_Aprile_102_588", "204a[0]", 405).
enter("XXI_Aprile_102_588", "204b[0]", 405).
exit("XXI_Aprile_102_588", "204b[0]", 410).
enter("XXI_Aprile_102_588", "204[1][0]", 410).
exit("XXI_Aprile_102_588", "204[1][0]", 445).
enter("XXI_Aprile_102_588", "204[1][1]", 445).
exit("XXI_Aprile_102_588", "204[1][1]", 645).
origin("Togliatti_10_606", "72[0]").
enter("Togliatti_10_606", "72[0]", 0).
exit("Togliatti_10_606", "72[0]", 55).
enter("Togliatti_10_606", "72[1]", 55).
exit("Togliatti_10_606", "72[1]", 95).
enter("Togliatti_10_606", "69", 95).
exit("Togliatti_10_606", "69", 190).
enter("Togliatti_10_606", "161", 190).
exit("Togliatti_10_606", "161", 240).
enter("Togliatti_10_606", "122", 240).
exit("Togliatti_10_606", "122", 295).
enter("Togliatti_10_606", "1b", 295).
exit("Togliatti_10_606", "1b", 355).
enter("Togliatti_10_606", "1", 355).
exit("Togliatti_10_606", "1", 390).
enter("Togliatti_10_606", "204a[0]", 390).
exit("Togliatti_10_606", "204a[0]", 510).
enter("Togliatti_10_606", "204b[0]", 510).
exit("Togliatti_10_606", "204b[0]", 515).
enter("Togliatti_10_606", "204[1][0]", 515).
exit("Togliatti_10_606", "204[1][0]", 550).
enter("Togliatti_10_606", "204[1][1]", 550).
exit("Togliatti_10_606", "204[1][1]", 585).
origin("XXI_Aprile_94_364", "122").
enter("XXI_Aprile_94_364", "122", 0).
exit("XXI_Aprile_94_364", "122", 55).
enter("XXI_Aprile_94_364", "1b", 55).
exit("XXI_Aprile_94_364", "1b", 115).
enter("XXI_Aprile_94_364", "1", 115).
exit("XXI_Aprile_94_364", "1", 150).
enter("XXI_Aprile_94_364", "204a[0]", 150).
exit("XXI_Aprile_94_364", "204a[0]", 270).
enter("XXI_Aprile_94_364", "204b[0]", 270).
exit("XXI_Aprile_94_364", "204b[0]", 275).
enter("XXI_Aprile_94_364", "54", 275).
exit("XXI_Aprile_94_364", "54", 300).
origin("Togliatti_10_713", "85").
enter("Togliatti_10_713", "85", 0).
exit("Togliatti_10_713", "85", 60).
enter("Togliatti_10_713", "72[0]", 60).
exit("Togliatti_10_713", "72[0]", 430).
enter("Togliatti_10_713", "72[1]", 430).
exit("Togliatti_10_713", "72[1]", 490).
enter("Togliatti_10_713", "69", 490).
exit("Togliatti_10_713", "69", 585).
enter("Togliatti_10_713", "161", 585).
exit("Togliatti_10_713", "161", 615).
enter("Togliatti_10_713", "122", 615).
exit("Togliatti_10_713", "122", 1975).
enter("Togliatti_10_713", "1b", 1975).
exit("Togliatti_10_713", "1b", 2230).
enter("Togliatti_10_713", "1", 2230).
exit("Togliatti_10_713", "1", 2635).
enter("Togliatti_10_713", "204a[0]", 2635).
exit("Togliatti_10_713", "204a[0]", 2690).
enter("Togliatti_10_713", "204b[0]", 2690).
exit("Togliatti_10_713", "204b[0]", 2970).
enter("Togliatti_10_713", "204[1][0]", 2970).
exit("Togliatti_10_713", "204[1][0]", 3030).
enter("Togliatti_10_713", "204[1][1]", 3030).
exit("Togliatti_10_713", "204[1][1]", 3115).
origin("Togliatti_10_685", "85").
enter("Togliatti_10_685", "85", 0).
exit("Togliatti_10_685", "85", 60).
enter("Togliatti_10_685", "72[0]", 60).
exit("Togliatti_10_685", "72[0]", 430).
enter("Togliatti_10_685", "72[1]", 430).
exit("Togliatti_10_685", "72[1]", 490).
enter("Togliatti_10_685", "69", 490).
exit("Togliatti_10_685", "69", 535).
enter("Togliatti_10_685", "161", 535).
exit("Togliatti_10_685", "161", 575).
enter("Togliatti_10_685", "122", 575).
exit("Togliatti_10_685", "122", 595).
enter("Togliatti_10_685", "1b", 595).
exit("Togliatti_10_685", "1b", 720).
enter("Togliatti_10_685", "1", 720).
exit("Togliatti_10_685", "1", 780).
enter("Togliatti_10_685", "204a[0]", 780).
exit("Togliatti_10_685", "204a[0]", 1010).
enter("Togliatti_10_685", "204b[0]", 1010).
exit("Togliatti_10_685", "204b[0]", 1645).
enter("Togliatti_10_685", "204[1][0]", 1645).
exit("Togliatti_10_685", "204[1][0]", 1820).
enter("Togliatti_10_685", "204[1][1]", 1820).
exit("Togliatti_10_685", "204[1][1]", 1870).
origin("Togliatti_10_592", "72[0]").
enter("Togliatti_10_592", "72[0]", 0).
exit("Togliatti_10_592", "72[0]", 55).
enter("Togliatti_10_592", "72[1]", 55).
exit("Togliatti_10_592", "72[1]", 95).
enter("Togliatti_10_592", "69", 95).
exit("Togliatti_10_592", "69", 190).
enter("Togliatti_10_592", "161", 190).
exit("Togliatti_10_592", "161", 240).
enter("Togliatti_10_592", "122", 240).
exit("Togliatti_10_592", "122", 295).
enter("Togliatti_10_592", "1b", 295).
exit("Togliatti_10_592", "1b", 355).
enter("Togliatti_10_592", "1", 355).
exit("Togliatti_10_592", "1", 390).
enter("Togliatti_10_592", "204a[0]", 390).
exit("Togliatti_10_592", "204a[0]", 510).
enter("Togliatti_10_592", "204b[0]", 510).
exit("Togliatti_10_592", "204b[0]", 515).
enter("Togliatti_10_592", "204[1][0]", 515).
exit("Togliatti_10_592", "204[1][0]", 550).
enter("Togliatti_10_592", "204[1][1]", 550).
exit("Togliatti_10_592", "204[1][1]", 585).
origin("Pepoli_3_1077", "38").
enter("Pepoli_3_1077", "38", 0).
exit("Pepoli_3_1077", "38", 60).
enter("Pepoli_3_1077", "15", 60).
exit("Pepoli_3_1077", "15", 135).
enter("Pepoli_3_1077", "14", 135).
exit("Pepoli_3_1077", "14", 175).
origin("Pepoli_11_1840", "43[1]").
enter("Pepoli_11_1840", "43[1]", 0).
exit("Pepoli_11_1840", "43[1]", 70).
enter("Pepoli_11_1840", "201", 70).
exit("Pepoli_11_1840", "201", 205).
enter("Pepoli_11_1840", "201c", 205).
exit("Pepoli_11_1840", "201c", 240).
enter("Pepoli_11_1840", "204a[0]", 240).
exit("Pepoli_11_1840", "204a[0]", 360).
enter("Pepoli_11_1840", "124", 360).
exit("Pepoli_11_1840", "124", 405).
origin("Vittorio_Veneto_2_623", "224[0]").
enter("Vittorio_Veneto_2_623", "224[0]", 0).
exit("Vittorio_Veneto_2_623", "224[0]", 140).
enter("Vittorio_Veneto_2_623", "224[1]", 140).
exit("Vittorio_Veneto_2_623", "224[1]", 200).
enter("Vittorio_Veneto_2_623", "[181|18]", 200).
exit("Vittorio_Veneto_2_623", "[181|18]", 275).
enter("Vittorio_Veneto_2_623", "[17|71]", 275).
exit("Vittorio_Veneto_2_623", "[17|71]", 330).
enter("Vittorio_Veneto_2_623", "67", 330).
exit("Vittorio_Veneto_2_623", "67", 345).
enter("Vittorio_Veneto_2_623", "[80|127]", 345).
exit("Vittorio_Veneto_2_623", "[80|127]", 380).
enter("Vittorio_Veneto_2_623", "(77[1][0])", 380).
exit("Vittorio_Veneto_2_623", "(77[1][0])", 400).
enter("Vittorio_Veneto_2_623", "77[1][1]", 400).
exit("Vittorio_Veneto_2_623", "77[1][1]", 440).
origin("XXI_Aprile_7_831", "[89[0]|20002+89[1][0]|89[1][1]]").
enter("XXI_Aprile_7_831", "[89[0]|20002+89[1][0]|89[1][1]]", 0).
exit("XXI_Aprile_7_831", "[89[0]|20002+89[1][0]|89[1][1]]", 75).
enter("XXI_Aprile_7_831", "91", 75).
exit("XXI_Aprile_7_831", "91", 95).
enter("XXI_Aprile_7_831", "186", 95).
exit("XXI_Aprile_7_831", "186", 125).
enter("XXI_Aprile_7_831", "[109[0]|109[1][0]+20003|109[1][1]]", 125).
exit("XXI_Aprile_7_831", "[109[0]|109[1][0]+20003|109[1][1]]", 160).
enter("XXI_Aprile_7_831", "[116|46]", 160).
exit("XXI_Aprile_7_831", "[116|46]", 225).
enter("XXI_Aprile_7_831", "113", 225).
exit("XXI_Aprile_7_831", "113", 275).
enter("XXI_Aprile_7_831", "209", 275).
exit("XXI_Aprile_7_831", "209", 310).
origin("Pepoli_3_1492", "[210|43[0]]").
enter("Pepoli_3_1492", "[210|43[0]]", 0).
exit("Pepoli_3_1492", "[210|43[0]]", 185).
enter("Pepoli_3_1492", "118", 185).
exit("Pepoli_3_1492", "118", 305).
enter("Pepoli_3_1492", "65", 305).
exit("Pepoli_3_1492", "65", 345).
enter("Pepoli_3_1492", "57[0]", 345).
exit("Pepoli_3_1492", "57[0]", 420).
enter("Pepoli_3_1492", "57[1]", 420).
exit("Pepoli_3_1492", "57[1]", 425).
enter("Pepoli_3_1492", "62", 425).
exit("Pepoli_3_1492", "62", 460).
enter("Pepoli_3_1492", "159", 460).
exit("Pepoli_3_1492", "159", 515).
enter("Pepoli_3_1492", "42", 515).
exit("Pepoli_3_1492", "42", 660).
enter("Pepoli_3_1492", "39", 660).
exit("Pepoli_3_1492", "39", 685).
enter("Pepoli_3_1492", "35", 685).
exit("Pepoli_3_1492", "35", 725).
enter("Pepoli_3_1492", "38", 725).
exit("Pepoli_3_1492", "38", 755).
enter("Pepoli_3_1492", "15", 755).
exit("Pepoli_3_1492", "15", 815).
enter("Pepoli_3_1492", "14", 815).
exit("Pepoli_3_1492", "14", 825).
origin("Togliatti_10_734", "85").
enter("Togliatti_10_734", "85", 0).
exit("Togliatti_10_734", "85", 60).
enter("Togliatti_10_734", "72[0]", 60).
exit("Togliatti_10_734", "72[0]", 530).
enter("Togliatti_10_734", "72[1]", 530).
exit("Togliatti_10_734", "72[1]", 575).
enter("Togliatti_10_734", "69", 575).
exit("Togliatti_10_734", "69", 635).
enter("Togliatti_10_734", "161", 635).
exit("Togliatti_10_734", "161", 985).
enter("Togliatti_10_734", "122", 985).
exit("Togliatti_10_734", "122", 1275).
enter("Togliatti_10_734", "1b", 1275).
exit("Togliatti_10_734", "1b", 1505).
enter("Togliatti_10_734", "1", 1505).
exit("Togliatti_10_734", "1", 1665).
enter("Togliatti_10_734", "204a[0]", 1665).
exit("Togliatti_10_734", "204a[0]", 1915).
enter("Togliatti_10_734", "204b[0]", 1915).
exit("Togliatti_10_734", "204b[0]", 2205).
enter("Togliatti_10_734", "204[1][0]", 2205).
exit("Togliatti_10_734", "204[1][0]", 2310).
enter("Togliatti_10_734", "204[1][1]", 2310).
exit("Togliatti_10_734", "204[1][1]", 2350).
origin("Vittorio_Veneto_10_651", "224[0]").
enter("Vittorio_Veneto_10_651", "224[0]", 0).
exit("Vittorio_Veneto_10_651", "224[0]", 85).
enter("Vittorio_Veneto_10_651", "224[1]", 85).
exit("Vittorio_Veneto_10_651", "224[1]", 145).
enter("Vittorio_Veneto_10_651", "[181|18]", 145).
exit("Vittorio_Veneto_10_651", "[181|18]", 205).
enter("Vittorio_Veneto_10_651", "[17|71]", 205).
exit("Vittorio_Veneto_10_651", "[17|71]", 265).
enter("Vittorio_Veneto_10_651", "67", 265).
exit("Vittorio_Veneto_10_651", "67", 330).
enter("Vittorio_Veneto_10_651", "[80|127]", 330).
exit("Vittorio_Veneto_10_651", "[80|127]", 345).
enter("Vittorio_Veneto_10_651", "(77[1][0]|77ab|77bc|77cd|53cd|53[0])", 345).
exit("Vittorio_Veneto_10_651", "(77[1][0]|77ab|77bc|77cd|53cd|53[0])", 355).
enter("Vittorio_Veneto_10_651", "78[1][1]", 355).
exit("Vittorio_Veneto_10_651", "78[1][1]", 365).
enter("Vittorio_Veneto_10_651", "[189[0]|189[1][0]+20000|189[1][1]]", 365).
exit("Vittorio_Veneto_10_651", "[189[0]|189[1][0]+20000|189[1][1]]", 415).
enter("Vittorio_Veneto_10_651", "188", 415).
exit("Vittorio_Veneto_10_651", "188", 460).
enter("Vittorio_Veneto_10_651", "[87[0]|20001+87[1][0]|87[1][1]]", 460).
exit("Vittorio_Veneto_10_651", "[87[0]|20001+87[1][0]|87[1][1]]", 465).
enter("Vittorio_Veneto_10_651", "m90", 465).
exit("Vittorio_Veneto_10_651", "m90", 485).
enter("Vittorio_Veneto_10_651", "171", 485).
exit("Vittorio_Veneto_10_651", "171", 530).
enter("Vittorio_Veneto_10_651", "161", 530).
exit("Vittorio_Veneto_10_651", "161", 555).
enter("Vittorio_Veneto_10_651", "122", 555).
exit("Vittorio_Veneto_10_651", "122", 585).
enter("Vittorio_Veneto_10_651", "1b", 585).
exit("Vittorio_Veneto_10_651", "1b", 845).
enter("Vittorio_Veneto_10_651", "1", 845).
exit("Vittorio_Veneto_10_651", "1", 910).
enter("Vittorio_Veneto_10_651", "204a[0]", 910).
exit("Vittorio_Veneto_10_651", "204a[0]", 1145).
enter("Vittorio_Veneto_10_651", "204b[0]", 1145).
exit("Vittorio_Veneto_10_651", "204b[0]", 1580).
enter("Vittorio_Veneto_10_651", "204[1][0]", 1580).
exit("Vittorio_Veneto_10_651", "204[1][0]", 1820).
enter("Vittorio_Veneto_10_651", "204[1][1]", 1820).
exit("Vittorio_Veneto_10_651", "204[1][1]", 1940).
origin("Pepoli_11_2062", "201").
enter("Pepoli_11_2062", "201", 0).
exit("Pepoli_11_2062", "201", 135).
enter("Pepoli_11_2062", "201c", 135).
exit("Pepoli_11_2062", "201c", 170).
enter("Pepoli_11_2062", "204a[0]", 170).
exit("Pepoli_11_2062", "204a[0]", 290).
enter("Pepoli_11_2062", "124", 290).
exit("Pepoli_11_2062", "124", 335).
origin("Pepoli_2_977", "19").
enter("Pepoli_2_977", "19", 0).
exit("Pepoli_2_977", "19", 35).
enter("Pepoli_2_977", "[22|59]", 35).
exit("Pepoli_2_977", "[22|59]", 105).
enter("Pepoli_2_977", "(53cd|53[0]|53[1][0]|53[1][1][0]|77[1][0])", 105).
exit("Pepoli_2_977", "(53cd|53[0]|53[1][0]|53[1][1][0]|77[1][0])", 115).
enter("Pepoli_2_977", "77[1][1]", 115).
exit("Pepoli_2_977", "77[1][1]", 175).
origin("Pepoli_11_1869", "43[1]").
enter("Pepoli_11_1869", "43[1]", 0).
exit("Pepoli_11_1869", "43[1]", 70).
enter("Pepoli_11_1869", "201", 70).
exit("Pepoli_11_1869", "201", 205).
enter("Pepoli_11_1869", "201c", 205).
exit("Pepoli_11_1869", "201c", 240).
enter("Pepoli_11_1869", "204a[0]", 240).
exit("Pepoli_11_1869", "204a[0]", 360).
enter("Pepoli_11_1869", "124", 360).
exit("Pepoli_11_1869", "124", 405).
origin("Togliatti_10_652", "85").
enter("Togliatti_10_652", "85", 0).
exit("Togliatti_10_652", "85", 70).
enter("Togliatti_10_652", "72[0]", 70).
exit("Togliatti_10_652", "72[0]", 145).
enter("Togliatti_10_652", "72[1]", 145).
exit("Togliatti_10_652", "72[1]", 185).
enter("Togliatti_10_652", "69", 185).
exit("Togliatti_10_652", "69", 280).
enter("Togliatti_10_652", "161", 280).
exit("Togliatti_10_652", "161", 370).
enter("Togliatti_10_652", "122", 370).
exit("Togliatti_10_652", "122", 470).
enter("Togliatti_10_652", "1b", 470).
exit("Togliatti_10_652", "1b", 530).
enter("Togliatti_10_652", "1", 530).
exit("Togliatti_10_652", "1", 565).
enter("Togliatti_10_652", "204a[0]", 565).
exit("Togliatti_10_652", "204a[0]", 685).
enter("Togliatti_10_652", "204b[0]", 685).
exit("Togliatti_10_652", "204b[0]", 690).
enter("Togliatti_10_652", "204[1][0]", 690).
exit("Togliatti_10_652", "204[1][0]", 725).
enter("Togliatti_10_652", "204[1][1]", 725).
exit("Togliatti_10_652", "204[1][1]", 925).
origin("Pepoli_12_1287", "159").
enter("Pepoli_12_1287", "159", 0).
exit("Pepoli_12_1287", "159", 30).
enter("Pepoli_12_1287", "42", 30).
exit("Pepoli_12_1287", "42", 80).
enter("Pepoli_12_1287", "39", 80).
exit("Pepoli_12_1287", "39", 95).
enter("Pepoli_12_1287", "35", 95).
exit("Pepoli_12_1287", "35", 470).
enter("Pepoli_12_1287", "38", 470).
exit("Pepoli_12_1287", "38", 540).
enter("Pepoli_12_1287", "15", 540).
exit("Pepoli_12_1287", "15", 585).
enter("Pepoli_12_1287", "24", 585).
exit("Pepoli_12_1287", "24", 630).
enter("Pepoli_12_1287", "[22|59]", 630).
exit("Pepoli_12_1287", "[22|59]", 650).
enter("Pepoli_12_1287", "(53cd|53[0]|53[1][0])", 650).
exit("Pepoli_12_1287", "(53cd|53[0]|53[1][0])", 690).
enter("Pepoli_12_1287", "79", 690).
exit("Pepoli_12_1287", "79", 720).
enter("Pepoli_12_1287", "[68|11]", 720).
exit("Pepoli_12_1287", "[68|11]", 765).
enter("Pepoli_12_1287", "84", 765).
exit("Pepoli_12_1287", "84", 795).
enter("Pepoli_12_1287", "180", 795).
exit("Pepoli_12_1287", "180", 820).
origin("Pepoli_11_1735", "201").
enter("Pepoli_11_1735", "201", 0).
exit("Pepoli_11_1735", "201", 135).
enter("Pepoli_11_1735", "201c", 135).
exit("Pepoli_11_1735", "201c", 170).
enter("Pepoli_11_1735", "204a[0]", 170).
exit("Pepoli_11_1735", "204a[0]", 290).
enter("Pepoli_11_1735", "124", 290).
exit("Pepoli_11_1735", "124", 335).
origin("Costa_91_1150", "161").
enter("Costa_91_1150", "161", 0).
exit("Costa_91_1150", "161", 25).
enter("Costa_91_1150", "122", 25).
exit("Costa_91_1150", "122", 320).
enter("Costa_91_1150", "1b", 320).
exit("Costa_91_1150", "1b", 1345).
enter("Costa_91_1150", "1", 1345).
exit("Costa_91_1150", "1", 1385).
enter("Costa_91_1150", "204a[0]", 1385).
exit("Costa_91_1150", "204a[0]", 1530).
enter("Costa_91_1150", "204b[0]", 1530).
exit("Costa_91_1150", "204b[0]", 1540).
enter("Costa_91_1150", "54", 1540).
exit("Costa_91_1150", "54", 1585).
origin("Pepoli_11_1990", "201").
enter("Pepoli_11_1990", "201", 0).
exit("Pepoli_11_1990", "201", 135).
enter("Pepoli_11_1990", "201c", 135).
exit("Pepoli_11_1990", "201c", 170).
enter("Pepoli_11_1990", "204a[0]", 170).
exit("Pepoli_11_1990", "204a[0]", 290).
enter("Pepoli_11_1990", "124", 290).
exit("Pepoli_11_1990", "124", 335).
origin("Togliatti_9_732", "85").
enter("Togliatti_9_732", "85", 0).
exit("Togliatti_9_732", "85", 70).
enter("Togliatti_9_732", "72[0]", 70).
exit("Togliatti_9_732", "72[0]", 145).
enter("Togliatti_9_732", "72[1]", 145).
exit("Togliatti_9_732", "72[1]", 185).
enter("Togliatti_9_732", "69", 185).
exit("Togliatti_9_732", "69", 280).
enter("Togliatti_9_732", "161", 280).
exit("Togliatti_9_732", "161", 305).
enter("Togliatti_9_732", "122", 305).
exit("Togliatti_9_732", "122", 360).
enter("Togliatti_9_732", "1b", 360).
exit("Togliatti_9_732", "1b", 420).
enter("Togliatti_9_732", "1", 420).
exit("Togliatti_9_732", "1", 455).
enter("Togliatti_9_732", "204a[0]", 455).
exit("Togliatti_9_732", "204a[0]", 575).
enter("Togliatti_9_732", "204b[0]", 575).
exit("Togliatti_9_732", "204b[0]", 580).
enter("Togliatti_9_732", "54", 580).
exit("Togliatti_9_732", "54", 605).
origin("Pepoli_12_953", "[68|11]").
enter("Pepoli_12_953", "[68|11]", 0).
exit("Pepoli_12_953", "[68|11]", 80).
enter("Pepoli_12_953", "84", 80).
exit("Pepoli_12_953", "84", 100).
enter("Pepoli_12_953", "180", 100).
exit("Pepoli_12_953", "180", 195).
origin("Togliatti_10_626", "85").
enter("Togliatti_10_626", "85", 0).
exit("Togliatti_10_626", "85", 110).
enter("Togliatti_10_626", "72[0]", 110).
exit("Togliatti_10_626", "72[0]", 185).
enter("Togliatti_10_626", "72[1]", 185).
exit("Togliatti_10_626", "72[1]", 225).
enter("Togliatti_10_626", "69", 225).
exit("Togliatti_10_626", "69", 320).
enter("Togliatti_10_626", "161", 320).
exit("Togliatti_10_626", "161", 370).
enter("Togliatti_10_626", "122", 370).
exit("Togliatti_10_626", "122", 425).
enter("Togliatti_10_626", "1b", 425).
exit("Togliatti_10_626", "1b", 485).
enter("Togliatti_10_626", "1", 485).
exit("Togliatti_10_626", "1", 520).
enter("Togliatti_10_626", "204a[0]", 520).
exit("Togliatti_10_626", "204a[0]", 640).
enter("Togliatti_10_626", "204b[0]", 640).
exit("Togliatti_10_626", "204b[0]", 645).
enter("Togliatti_10_626", "204[1][0]", 645).
exit("Togliatti_10_626", "204[1][0]", 680).
enter("Togliatti_10_626", "204[1][1]", 680).
exit("Togliatti_10_626", "204[1][1]", 715).
origin("XXI_Aprile_102_726", "69").
enter("XXI_Aprile_102_726", "69", 0).
exit("XXI_Aprile_102_726", "69", 95).
enter("XXI_Aprile_102_726", "161", 95).
exit("XXI_Aprile_102_726", "161", 145).
enter("XXI_Aprile_102_726", "122", 145).
exit("XXI_Aprile_102_726", "122", 200).
enter("XXI_Aprile_102_726", "1b", 200).
exit("XXI_Aprile_102_726", "1b", 260).
enter("XXI_Aprile_102_726", "1", 260).
exit("XXI_Aprile_102_726", "1", 295).
enter("XXI_Aprile_102_726", "204a[0]", 295).
exit("XXI_Aprile_102_726", "204a[0]", 415).
enter("XXI_Aprile_102_726", "204b[0]", 415).
exit("XXI_Aprile_102_726", "204b[0]", 420).
enter("XXI_Aprile_102_726", "204[1][0]", 420).
exit("XXI_Aprile_102_726", "204[1][0]", 455).
enter("XXI_Aprile_102_726", "204[1][1]", 455).
exit("XXI_Aprile_102_726", "204[1][1]", 490).
origin("Pepoli_2_1607", "[210|43[0]]").
enter("Pepoli_2_1607", "[210|43[0]]", 0).
exit("Pepoli_2_1607", "[210|43[0]]", 65).
enter("Pepoli_2_1607", "118", 65).
exit("Pepoli_2_1607", "118", 80).
enter("Pepoli_2_1607", "65", 80).
exit("Pepoli_2_1607", "65", 105).
enter("Pepoli_2_1607", "57[0]", 105).
exit("Pepoli_2_1607", "57[0]", 120).
enter("Pepoli_2_1607", "57[1]", 120).
exit("Pepoli_2_1607", "57[1]", 125).
enter("Pepoli_2_1607", "62", 125).
exit("Pepoli_2_1607", "62", 145).
enter("Pepoli_2_1607", "159", 145).
exit("Pepoli_2_1607", "159", 180).
enter("Pepoli_2_1607", "42", 180).
exit("Pepoli_2_1607", "42", 195).
enter("Pepoli_2_1607", "39", 195).
exit("Pepoli_2_1607", "39", 220).
enter("Pepoli_2_1607", "35", 220).
exit("Pepoli_2_1607", "35", 290).
enter("Pepoli_2_1607", "38", 290).
exit("Pepoli_2_1607", "38", 350).
enter("Pepoli_2_1607", "50", 350).
exit("Pepoli_2_1607", "50", 380).
enter("Pepoli_2_1607", "19", 380).
exit("Pepoli_2_1607", "19", 415).
enter("Pepoli_2_1607", "[22|59]", 415).
exit("Pepoli_2_1607", "[22|59]", 485).
enter("Pepoli_2_1607", "(53cd|53[0]|53[1][0]|53[1][1][0]|77[1][0])", 485).
exit("Pepoli_2_1607", "(53cd|53[0]|53[1][0]|53[1][1][0]|77[1][0])", 495).
enter("Pepoli_2_1607", "77[1][1]", 495).
exit("Pepoli_2_1607", "77[1][1]", 535).
origin("Pepoli_11_2017", "201").
enter("Pepoli_11_2017", "201", 0).
exit("Pepoli_11_2017", "201", 135).
enter("Pepoli_11_2017", "201c", 135).
exit("Pepoli_11_2017", "201c", 170).
enter("Pepoli_11_2017", "204a[0]", 170).
exit("Pepoli_11_2017", "204a[0]", 290).
enter("Pepoli_11_2017", "124", 290).
exit("Pepoli_11_2017", "124", 335).
origin("Audinot_12_156", "131").
enter("Audinot_12_156", "131", 0).
exit("Audinot_12_156", "131", 150).
enter("Audinot_12_156", "65", 150).
exit("Audinot_12_156", "65", 195).
enter("Audinot_12_156", "57[0]", 195).
exit("Audinot_12_156", "57[0]", 280).
enter("Audinot_12_156", "57[1]", 280).
exit("Audinot_12_156", "57[1]", 295).
enter("Audinot_12_156", "62", 295).
exit("Audinot_12_156", "62", 385).
enter("Audinot_12_156", "159", 385).
exit("Audinot_12_156", "159", 490).
enter("Audinot_12_156", "42", 490).
exit("Audinot_12_156", "42", 510).
enter("Audinot_12_156", "39", 510).
exit("Audinot_12_156", "39", 530).
enter("Audinot_12_156", "35", 530).
exit("Audinot_12_156", "35", 585).
enter("Audinot_12_156", "38", 585).
exit("Audinot_12_156", "38", 645).
enter("Audinot_12_156", "50", 645).
exit("Audinot_12_156", "50", 705).
enter("Audinot_12_156", "19", 705).
exit("Audinot_12_156", "19", 740).
enter("Audinot_12_156", "[22|59]", 740).
exit("Audinot_12_156", "[22|59]", 810).
enter("Audinot_12_156", "(53cd|53[0]|53[1][0])", 810).
exit("Audinot_12_156", "(53cd|53[0]|53[1][0])", 830).
enter("Audinot_12_156", "79", 830).
exit("Audinot_12_156", "79", 900).
enter("Audinot_12_156", "[68|11]", 900).
exit("Audinot_12_156", "[68|11]", 980).
enter("Audinot_12_156", "84", 980).
exit("Audinot_12_156", "84", 995).
enter("Audinot_12_156", "180", 995).
exit("Audinot_12_156", "180", 1090).
origin("Costa_200_530", "122").
enter("Costa_200_530", "122", 0).
exit("Costa_200_530", "122", 55).
enter("Costa_200_530", "1b", 55).
exit("Costa_200_530", "1b", 115).
enter("Costa_200_530", "1", 115).
exit("Costa_200_530", "1", 150).
enter("Costa_200_530", "204a[0]", 150).
exit("Costa_200_530", "204a[0]", 270).
enter("Costa_200_530", "204b[0]", 270).
exit("Costa_200_530", "204b[0]", 275).
enter("Costa_200_530", "204[1][0]", 275).
exit("Costa_200_530", "204[1][0]", 310).
enter("Costa_200_530", "204[1][1]", 310).
exit("Costa_200_530", "204[1][1]", 365).
origin("Costa_91_177", "1b").
enter("Costa_91_177", "1b", 0).
exit("Costa_91_177", "1b", 60).
enter("Costa_91_177", "1", 60).
exit("Costa_91_177", "1", 95).
enter("Costa_91_177", "204a[0]", 95).
exit("Costa_91_177", "204a[0]", 215).
enter("Costa_91_177", "204b[0]", 215).
exit("Costa_91_177", "204b[0]", 220).
enter("Costa_91_177", "54", 220).
exit("Costa_91_177", "54", 245).
origin("XXI_Aprile_7_702", "209").
enter("XXI_Aprile_7_702", "209", 0).
exit("XXI_Aprile_7_702", "209", 50).
origin("Costa_700_1366", "209").
enter("Costa_700_1366", "209", 0).
exit("Costa_700_1366", "209", 100).
origin("Costa_70_1373", "209").
enter("Costa_70_1373", "209", 0).
exit("Costa_70_1373", "209", 100).
origin("Pepoli_12_1120", "38").
enter("Pepoli_12_1120", "38", 0).
exit("Pepoli_12_1120", "38", 60).
enter("Pepoli_12_1120", "50", 60).
exit("Pepoli_12_1120", "50", 120).
enter("Pepoli_12_1120", "19", 120).
exit("Pepoli_12_1120", "19", 155).
enter("Pepoli_12_1120", "[22|59]", 155).
exit("Pepoli_12_1120", "[22|59]", 225).
enter("Pepoli_12_1120", "(53cd|53[0]|53[1][0])", 225).
exit("Pepoli_12_1120", "(53cd|53[0]|53[1][0])", 245).
enter("Pepoli_12_1120", "79", 245).
exit("Pepoli_12_1120", "79", 315).
enter("Pepoli_12_1120", "[68|11]", 315).
exit("Pepoli_12_1120", "[68|11]", 395).
enter("Pepoli_12_1120", "84", 395).
exit("Pepoli_12_1120", "84", 415).
enter("Pepoli_12_1120", "180", 415).
exit("Pepoli_12_1120", "180", 440).
origin("Togliatti_11_506", "204a[0]").
enter("Togliatti_11_506", "204a[0]", 0).
exit("Togliatti_11_506", "204a[0]", 325).
enter("Togliatti_11_506", "124", 325).
exit("Togliatti_11_506", "124", 2040).
origin("Vittorio_Veneto_2_654", "224[0]").
enter("Vittorio_Veneto_2_654", "224[0]", 0).
exit("Vittorio_Veneto_2_654", "224[0]", 140).
enter("Vittorio_Veneto_2_654", "224[1]", 140).
exit("Vittorio_Veneto_2_654", "224[1]", 200).
enter("Vittorio_Veneto_2_654", "[181|18]", 200).
exit("Vittorio_Veneto_2_654", "[181|18]", 275).
enter("Vittorio_Veneto_2_654", "[17|71]", 275).
exit("Vittorio_Veneto_2_654", "[17|71]", 330).
enter("Vittorio_Veneto_2_654", "67", 330).
exit("Vittorio_Veneto_2_654", "67", 340).
enter("Vittorio_Veneto_2_654", "[80|127]", 340).
exit("Vittorio_Veneto_2_654", "[80|127]", 360).
enter("Vittorio_Veneto_2_654", "(77[1][0])", 360).
exit("Vittorio_Veneto_2_654", "(77[1][0])", 380).
enter("Vittorio_Veneto_2_654", "77[1][1]", 380).
exit("Vittorio_Veneto_2_654", "77[1][1]", 420).
origin("Costa_200_546", "122").
enter("Costa_200_546", "122", 0).
exit("Costa_200_546", "122", 100).
enter("Costa_200_546", "1b", 100).
exit("Costa_200_546", "1b", 160).
enter("Costa_200_546", "1", 160).
exit("Costa_200_546", "1", 195).
enter("Costa_200_546", "204a[0]", 195).
exit("Costa_200_546", "204a[0]", 315).
enter("Costa_200_546", "204b[0]", 315).
exit("Costa_200_546", "204b[0]", 320).
enter("Costa_200_546", "204[1][0]", 320).
exit("Costa_200_546", "204[1][0]", 355).
enter("Costa_200_546", "204[1][1]", 355).
exit("Costa_200_546", "204[1][1]", 410).
origin("XXI_Aprile_114_533", "122").
enter("XXI_Aprile_114_533", "122", 0).
exit("XXI_Aprile_114_533", "122", 100).
enter("XXI_Aprile_114_533", "1b", 100).
exit("XXI_Aprile_114_533", "1b", 160).
enter("XXI_Aprile_114_533", "1", 160).
exit("XXI_Aprile_114_533", "1", 195).
enter("XXI_Aprile_114_533", "204a[0]", 195).
exit("XXI_Aprile_114_533", "204a[0]", 315).
enter("XXI_Aprile_114_533", "124", 315).
exit("XXI_Aprile_114_533", "124", 360).
origin("XXI_Aprile_93_896", "122").
enter("XXI_Aprile_93_896", "122", 0).
exit("XXI_Aprile_93_896", "122", 1640).
enter("XXI_Aprile_93_896", "1b", 1640).
exit("XXI_Aprile_93_896", "1b", 2500).
enter("XXI_Aprile_93_896", "1", 2500).
exit("XXI_Aprile_93_896", "1", 2535).
enter("XXI_Aprile_93_896", "204a[0]", 2535).
exit("XXI_Aprile_93_896", "204a[0]", 2655).
enter("XXI_Aprile_93_896", "204b[0]", 2655).
exit("XXI_Aprile_93_896", "204b[0]", 2660).
enter("XXI_Aprile_93_896", "54", 2660).
exit("XXI_Aprile_93_896", "54", 3275).
origin("XXI_Aprile_103_801", "74").
enter("XXI_Aprile_103_801", "74", 0).
exit("XXI_Aprile_103_801", "74", 95).
enter("XXI_Aprile_103_801", "72[1]", 95).
exit("XXI_Aprile_103_801", "72[1]", 135).
enter("XXI_Aprile_103_801", "69", 135).
exit("XXI_Aprile_103_801", "69", 230).
enter("XXI_Aprile_103_801", "161", 230).
exit("XXI_Aprile_103_801", "161", 280).
enter("XXI_Aprile_103_801", "122", 280).
exit("XXI_Aprile_103_801", "122", 380).
enter("XXI_Aprile_103_801", "1b", 380).
exit("XXI_Aprile_103_801", "1b", 440).
enter("XXI_Aprile_103_801", "1", 440).
exit("XXI_Aprile_103_801", "1", 475).
enter("XXI_Aprile_103_801", "204a[0]", 475).
exit("XXI_Aprile_103_801", "204a[0]", 595).
enter("XXI_Aprile_103_801", "204b[0]", 595).
exit("XXI_Aprile_103_801", "204b[0]", 600).
enter("XXI_Aprile_103_801", "204[1][0]", 600).
exit("XXI_Aprile_103_801", "204[1][0]", 635).
enter("XXI_Aprile_103_801", "204[1][1]", 635).
exit("XXI_Aprile_103_801", "204[1][1]", 670).
origin("Pepoli_3_1163", "35").
enter("Pepoli_3_1163", "35", 0).
exit("Pepoli_3_1163", "35", 55).
enter("Pepoli_3_1163", "38", 55).
exit("Pepoli_3_1163", "38", 115).
enter("Pepoli_3_1163", "15", 115).
exit("Pepoli_3_1163", "15", 190).
enter("Pepoli_3_1163", "14", 190).
exit("Pepoli_3_1163", "14", 230).
origin("Vittorio_Veneto_73_559", "[181|18]").
enter("Vittorio_Veneto_73_559", "[181|18]", 0).
exit("Vittorio_Veneto_73_559", "[181|18]", 75).
enter("Vittorio_Veneto_73_559", "69", 75).
exit("Vittorio_Veneto_73_559", "69", 170).
enter("Vittorio_Veneto_73_559", "161", 170).
exit("Vittorio_Veneto_73_559", "161", 220).
enter("Vittorio_Veneto_73_559", "122", 220).
exit("Vittorio_Veneto_73_559", "122", 320).
enter("Vittorio_Veneto_73_559", "[3|2]", 320).
exit("Vittorio_Veneto_73_559", "[3|2]", 360).
enter("Vittorio_Veneto_73_559", "[202|34]", 360).
exit("Vittorio_Veneto_73_559", "[202|34]", 410).
enter("Vittorio_Veneto_73_559", "113", 410).
exit("Vittorio_Veneto_73_559", "113", 460).
enter("Vittorio_Veneto_73_559", "209", 460).
exit("Vittorio_Veneto_73_559", "209", 510).
origin("Costa_50_1356", "[200|60]").
enter("Costa_50_1356", "[200|60]", 0).
exit("Costa_50_1356", "[200|60]", 135).
origin("Pepoli_3_1469", "118").
enter("Pepoli_3_1469", "118", 0).
exit("Pepoli_3_1469", "118", 120).
enter("Pepoli_3_1469", "65", 120).
exit("Pepoli_3_1469", "65", 145).
enter("Pepoli_3_1469", "57[0]", 145).
exit("Pepoli_3_1469", "57[0]", 160).
enter("Pepoli_3_1469", "57[1]", 160).
exit("Pepoli_3_1469", "57[1]", 235).
enter("Pepoli_3_1469", "62", 235).
exit("Pepoli_3_1469", "62", 355).
enter("Pepoli_3_1469", "159", 355).
exit("Pepoli_3_1469", "159", 410).
enter("Pepoli_3_1469", "42", 410).
exit("Pepoli_3_1469", "42", 460).
enter("Pepoli_3_1469", "39", 460).
exit("Pepoli_3_1469", "39", 470).
enter("Pepoli_3_1469", "35", 470).
exit("Pepoli_3_1469", "35", 540).
enter("Pepoli_3_1469", "38", 540).
exit("Pepoli_3_1469", "38", 570).
enter("Pepoli_3_1469", "15", 570).
exit("Pepoli_3_1469", "15", 620).
enter("Pepoli_3_1469", "14", 620).
exit("Pepoli_3_1469", "14", 630).
origin("XXI_Aprile_7_740", "[116|46]").
enter("XXI_Aprile_7_740", "[116|46]", 0).
exit("XXI_Aprile_7_740", "[116|46]", 95).
enter("XXI_Aprile_7_740", "113", 95).
exit("XXI_Aprile_7_740", "113", 165).
enter("XXI_Aprile_7_740", "209", 165).
exit("XXI_Aprile_7_740", "209", 200).
origin("Pepoli_8_143", "[116|46]").
enter("Pepoli_8_143", "[116|46]", 0).
exit("Pepoli_8_143", "[116|46]", 60).
enter("Pepoli_8_143", "134", 60).
exit("Pepoli_8_143", "134", 65).
origin("XXI_Aprile_5_1005", "37").
enter("XXI_Aprile_5_1005", "37", 0).
exit("XXI_Aprile_5_1005", "37", 15).
enter("XXI_Aprile_5_1005", "36", 15).
exit("XXI_Aprile_5_1005", "36", 25).
enter("XXI_Aprile_5_1005", "40", 25).
exit("XXI_Aprile_5_1005", "40", 30).
enter("XXI_Aprile_5_1005", "41", 30).
exit("XXI_Aprile_5_1005", "41", 40).
enter("XXI_Aprile_5_1005", "160", 40).
exit("XXI_Aprile_5_1005", "160", 65).
enter("XXI_Aprile_5_1005", "61", 65).
exit("XXI_Aprile_5_1005", "61", 85).
enter("XXI_Aprile_5_1005", "58[0]", 85).
exit("XXI_Aprile_5_1005", "58[0]", 90).
enter("XXI_Aprile_5_1005", "58[1]", 90).
exit("XXI_Aprile_5_1005", "58[1]", 105).
enter("XXI_Aprile_5_1005", "[200|60]", 105).
exit("XXI_Aprile_5_1005", "[200|60]", 130).
origin("Pepoli_11_2047", "43[1]").
enter("Pepoli_11_2047", "43[1]", 0).
exit("Pepoli_11_2047", "43[1]", 70).
enter("Pepoli_11_2047", "201", 70).
exit("Pepoli_11_2047", "201", 205).
enter("Pepoli_11_2047", "201c", 205).
exit("Pepoli_11_2047", "201c", 240).
enter("Pepoli_11_2047", "204a[0]", 240).
exit("Pepoli_11_2047", "204a[0]", 360).
enter("Pepoli_11_2047", "124", 360).
exit("Pepoli_11_2047", "124", 405).
origin("XXI_Aprile_7_989", "40").
enter("XXI_Aprile_7_989", "40", 0).
exit("XXI_Aprile_7_989", "40", 5).
enter("XXI_Aprile_7_989", "153", 5).
exit("XXI_Aprile_7_989", "153", 85).
enter("XXI_Aprile_7_989", "[87[0]|20001+87[1][0]|87[1][1]]", 85).
exit("XXI_Aprile_7_989", "[87[0]|20001+87[1][0]|87[1][1]]", 135).
enter("XXI_Aprile_7_989", "m90", 135).
exit("XXI_Aprile_7_989", "m90", 180).
enter("XXI_Aprile_7_989", "[89[0]|20002+89[1][0]|89[1][1]]", 180).
exit("XXI_Aprile_7_989", "[89[0]|20002+89[1][0]|89[1][1]]", 200).
enter("XXI_Aprile_7_989", "91", 200).
exit("XXI_Aprile_7_989", "91", 220).
enter("XXI_Aprile_7_989", "186", 220).
exit("XXI_Aprile_7_989", "186", 250).
enter("XXI_Aprile_7_989", "[109[0]|109[1][0]+20003|109[1][1]]", 250).
exit("XXI_Aprile_7_989", "[109[0]|109[1][0]+20003|109[1][1]]", 270).
enter("XXI_Aprile_7_989", "120", 270).
exit("XXI_Aprile_7_989", "120", 285).
enter("XXI_Aprile_7_989", "117", 285).
exit("XXI_Aprile_7_989", "117", 350).
enter("XXI_Aprile_7_989", "209", 350).
exit("XXI_Aprile_7_989", "209", 390).
origin("Pepoli_3_1598", "[210|43[0]]").
enter("Pepoli_3_1598", "[210|43[0]]", 0).
exit("Pepoli_3_1598", "[210|43[0]]", 65).
enter("Pepoli_3_1598", "118", 65).
exit("Pepoli_3_1598", "118", 125).
enter("Pepoli_3_1598", "65", 125).
exit("Pepoli_3_1598", "65", 170).
enter("Pepoli_3_1598", "57[0]", 170).
exit("Pepoli_3_1598", "57[0]", 215).
enter("Pepoli_3_1598", "57[1]", 215).
exit("Pepoli_3_1598", "57[1]", 230).
enter("Pepoli_3_1598", "62", 230).
exit("Pepoli_3_1598", "62", 255).
enter("Pepoli_3_1598", "159", 255).
exit("Pepoli_3_1598", "159", 360).
enter("Pepoli_3_1598", "42", 360).
exit("Pepoli_3_1598", "42", 380).
enter("Pepoli_3_1598", "39", 380).
exit("Pepoli_3_1598", "39", 400).
enter("Pepoli_3_1598", "35", 400).
exit("Pepoli_3_1598", "35", 455).
enter("Pepoli_3_1598", "38", 455).
exit("Pepoli_3_1598", "38", 515).
enter("Pepoli_3_1598", "15", 515).
exit("Pepoli_3_1598", "15", 590).
enter("Pepoli_3_1598", "14", 590).
exit("Pepoli_3_1598", "14", 630).
origin("XXI_Aprile_102_566", "161").
enter("XXI_Aprile_102_566", "161", 0).
exit("XXI_Aprile_102_566", "161", 90).
enter("XXI_Aprile_102_566", "122", 90).
exit("XXI_Aprile_102_566", "122", 190).
enter("XXI_Aprile_102_566", "1b", 190).
exit("XXI_Aprile_102_566", "1b", 250).
enter("XXI_Aprile_102_566", "1", 250).
exit("XXI_Aprile_102_566", "1", 285).
enter("XXI_Aprile_102_566", "204a[0]", 285).
exit("XXI_Aprile_102_566", "204a[0]", 405).
enter("XXI_Aprile_102_566", "204b[0]", 405).
exit("XXI_Aprile_102_566", "204b[0]", 410).
enter("XXI_Aprile_102_566", "204[1][0]", 410).
exit("XXI_Aprile_102_566", "204[1][0]", 445).
enter("XXI_Aprile_102_566", "204[1][1]", 445).
exit("XXI_Aprile_102_566", "204[1][1]", 645).
origin("XXI_Aprile_7_755", "[109[0]|109[1][0]+20003|109[1][1]]").
enter("XXI_Aprile_7_755", "[109[0]|109[1][0]+20003|109[1][1]]", 0).
exit("XXI_Aprile_7_755", "[109[0]|109[1][0]+20003|109[1][1]]", 35).
enter("XXI_Aprile_7_755", "[116|46]", 35).
exit("XXI_Aprile_7_755", "[116|46]", 130).
enter("XXI_Aprile_7_755", "113", 130).
exit("XXI_Aprile_7_755", "113", 180).
enter("XXI_Aprile_7_755", "209", 180).
exit("XXI_Aprile_7_755", "209", 230).
origin("XXI_Aprile_5_993", "36").
enter("XXI_Aprile_5_993", "36", 0).
exit("XXI_Aprile_5_993", "36", 10).
enter("XXI_Aprile_5_993", "40", 10).
exit("XXI_Aprile_5_993", "40", 20).
enter("XXI_Aprile_5_993", "41", 20).
exit("XXI_Aprile_5_993", "41", 35).
enter("XXI_Aprile_5_993", "160", 35).
exit("XXI_Aprile_5_993", "160", 55).
enter("XXI_Aprile_5_993", "61", 55).
exit("XXI_Aprile_5_993", "61", 75).
enter("XXI_Aprile_5_993", "58[0]", 75).
exit("XXI_Aprile_5_993", "58[0]", 80).
enter("XXI_Aprile_5_993", "58[1]", 80).
exit("XXI_Aprile_5_993", "58[1]", 95).
enter("XXI_Aprile_5_993", "[200|60]", 95).
exit("XXI_Aprile_5_993", "[200|60]", 1000).
origin("XXI_Aprile_7_1011", "[13|104]").
enter("XXI_Aprile_7_1011", "[13|104]", 0).
exit("XXI_Aprile_7_1011", "[13|104]", 50).
enter("XXI_Aprile_7_1011", "16", 50).
exit("XXI_Aprile_7_1011", "16", 60).
enter("XXI_Aprile_7_1011", "37", 60).
exit("XXI_Aprile_7_1011", "37", 75).
enter("XXI_Aprile_7_1011", "36", 75).
exit("XXI_Aprile_7_1011", "36", 85).
enter("XXI_Aprile_7_1011", "40", 85).
exit("XXI_Aprile_7_1011", "40", 100).
enter("XXI_Aprile_7_1011", "153", 100).
exit("XXI_Aprile_7_1011", "153", 165).
enter("XXI_Aprile_7_1011", "[87[0]|20001+87[1][0]|87[1][1]]", 165).
exit("XXI_Aprile_7_1011", "[87[0]|20001+87[1][0]|87[1][1]]", 190).
enter("XXI_Aprile_7_1011", "m90", 190).
exit("XXI_Aprile_7_1011", "m90", 195).
enter("XXI_Aprile_7_1011", "171", 195).
exit("XXI_Aprile_7_1011", "171", 240).
enter("XXI_Aprile_7_1011", "161", 240).
exit("XXI_Aprile_7_1011", "161", 275).
enter("XXI_Aprile_7_1011", "194", 275).
exit("XXI_Aprile_7_1011", "194", 290).
enter("XXI_Aprile_7_1011", "91", 290).
exit("XXI_Aprile_7_1011", "91", 295).
enter("XXI_Aprile_7_1011", "186", 295).
exit("XXI_Aprile_7_1011", "186", 305).
enter("XXI_Aprile_7_1011", "[109[0]|109[1][0]+20003|109[1][1]]", 305).
exit("XXI_Aprile_7_1011", "[109[0]|109[1][0]+20003|109[1][1]]", 315).
enter("XXI_Aprile_7_1011", "120", 315).
exit("XXI_Aprile_7_1011", "120", 330).
enter("XXI_Aprile_7_1011", "117", 330).
exit("XXI_Aprile_7_1011", "117", 380).
enter("XXI_Aprile_7_1011", "209", 380).
exit("XXI_Aprile_7_1011", "209", 455).
origin("XXI_Aprile_7_764", "186").
enter("XXI_Aprile_7_764", "186", 0).
exit("XXI_Aprile_7_764", "186", 30).
enter("XXI_Aprile_7_764", "[109[0]|109[1][0]+20003|109[1][1]]", 30).
exit("XXI_Aprile_7_764", "[109[0]|109[1][0]+20003|109[1][1]]", 65).
enter("XXI_Aprile_7_764", "[116|46]", 65).
exit("XXI_Aprile_7_764", "[116|46]", 130).
enter("XXI_Aprile_7_764", "113", 130).
exit("XXI_Aprile_7_764", "113", 180).
enter("XXI_Aprile_7_764", "209", 180).
exit("XXI_Aprile_7_764", "209", 280).
origin("Costa_200_917", "161").
enter("Costa_200_917", "161", 0).
exit("Costa_200_917", "161", 50).
enter("Costa_200_917", "122", 50).
exit("Costa_200_917", "122", 150).
enter("Costa_200_917", "1b", 150).
exit("Costa_200_917", "1b", 210).
enter("Costa_200_917", "1", 210).
exit("Costa_200_917", "1", 245).
enter("Costa_200_917", "204a[0]", 245).
exit("Costa_200_917", "204a[0]", 365).
enter("Costa_200_917", "204b[0]", 365).
exit("Costa_200_917", "204b[0]", 370).
enter("Costa_200_917", "204[1][0]", 370).
exit("Costa_200_917", "204[1][0]", 405).
enter("Costa_200_917", "204[1][1]", 405).
exit("Costa_200_917", "204[1][1]", 460).
origin("XXI_Aprile_94_661", "204a[0]").
enter("XXI_Aprile_94_661", "204a[0]", 0).
exit("XXI_Aprile_94_661", "204a[0]", 145).
enter("XXI_Aprile_94_661", "204b[0]", 145).
exit("XXI_Aprile_94_661", "204b[0]", 155).
enter("XXI_Aprile_94_661", "54", 155).
exit("XXI_Aprile_94_661", "54", 195).
origin("XXI_Aprile_93_562", "161").
enter("XXI_Aprile_93_562", "161", 0).
exit("XXI_Aprile_93_562", "161", 90).
enter("XXI_Aprile_93_562", "122", 90).
exit("XXI_Aprile_93_562", "122", 190).
enter("XXI_Aprile_93_562", "1b", 190).
exit("XXI_Aprile_93_562", "1b", 250).
enter("XXI_Aprile_93_562", "1", 250).
exit("XXI_Aprile_93_562", "1", 285).
enter("XXI_Aprile_93_562", "204a[0]", 285).
exit("XXI_Aprile_93_562", "204a[0]", 405).
enter("XXI_Aprile_93_562", "204b[0]", 405).
exit("XXI_Aprile_93_562", "204b[0]", 410).
enter("XXI_Aprile_93_562", "54", 410).
exit("XXI_Aprile_93_562", "54", 435).
origin("Costa_50_1358", "[200|60]").
enter("Costa_50_1358", "[200|60]", 0).
exit("Costa_50_1358", "[200|60]", 135).
origin("Pepoli_11_2056", "201").
enter("Pepoli_11_2056", "201", 0).
exit("Pepoli_11_2056", "201", 135).
enter("Pepoli_11_2056", "201c", 135).
exit("Pepoli_11_2056", "201c", 170).
enter("Pepoli_11_2056", "204a[0]", 170).
exit("Pepoli_11_2056", "204a[0]", 290).
enter("Pepoli_11_2056", "124", 290).
exit("Pepoli_11_2056", "124", 335).
origin("XXI_Aprile_93_614", "161").
enter("XXI_Aprile_93_614", "161", 0).
exit("XXI_Aprile_93_614", "161", 50).
enter("XXI_Aprile_93_614", "122", 50).
exit("XXI_Aprile_93_614", "122", 150).
enter("XXI_Aprile_93_614", "1b", 150).
exit("XXI_Aprile_93_614", "1b", 210).
enter("XXI_Aprile_93_614", "1", 210).
exit("XXI_Aprile_93_614", "1", 245).
enter("XXI_Aprile_93_614", "204a[0]", 245).
exit("XXI_Aprile_93_614", "204a[0]", 365).
enter("XXI_Aprile_93_614", "204b[0]", 365).
exit("XXI_Aprile_93_614", "204b[0]", 370).
enter("XXI_Aprile_93_614", "54", 370).
exit("XXI_Aprile_93_614", "54", 395).
origin("Pepoli_11_2009", "204a[0]").
enter("Pepoli_11_2009", "204a[0]", 0).
exit("Pepoli_11_2009", "204a[0]", 120).
enter("Pepoli_11_2009", "124", 120).
exit("Pepoli_11_2009", "124", 165).
origin("XXI_Aprile_1_984", "15").
enter("XXI_Aprile_1_984", "15", 0).
exit("XXI_Aprile_1_984", "15", 60).
enter("XXI_Aprile_1_984", "24", 60).
exit("XXI_Aprile_1_984", "24", 75).
enter("XXI_Aprile_1_984", "[22|59]", 75).
exit("XXI_Aprile_1_984", "[22|59]", 95).
enter("XXI_Aprile_1_984", "(53cd|53[0])", 95).
exit("XXI_Aprile_1_984", "(53cd|53[0])", 110).
enter("XXI_Aprile_1_984", "78[1][1]", 110).
exit("XXI_Aprile_1_984", "78[1][1]", 130).
enter("XXI_Aprile_1_984", "[189[0]|189[1][0]+20000|189[1][1]]", 130).
exit("XXI_Aprile_1_984", "[189[0]|189[1][0]+20000|189[1][1]]", 180).
enter("XXI_Aprile_1_984", "191", 180).
exit("XXI_Aprile_1_984", "191", 225).
enter("XXI_Aprile_1_984", "[17|71]", 225).
exit("XXI_Aprile_1_984", "[17|71]", 275).
enter("XXI_Aprile_1_984", "86", 275).
exit("XXI_Aprile_1_984", "86", 305).
origin("Pepoli_12_1314", "159").
enter("Pepoli_12_1314", "159", 0).
exit("Pepoli_12_1314", "159", 30).
enter("Pepoli_12_1314", "42", 30).
exit("Pepoli_12_1314", "42", 50).
enter("Pepoli_12_1314", "39", 50).
exit("Pepoli_12_1314", "39", 95).
enter("Pepoli_12_1314", "35", 95).
exit("Pepoli_12_1314", "35", 175).
enter("Pepoli_12_1314", "38", 175).
exit("Pepoli_12_1314", "38", 430).
enter("Pepoli_12_1314", "50", 430).
exit("Pepoli_12_1314", "50", 495).
enter("Pepoli_12_1314", "19", 495).
exit("Pepoli_12_1314", "19", 530).
enter("Pepoli_12_1314", "[22|59]", 530).
exit("Pepoli_12_1314", "[22|59]", 595).
enter("Pepoli_12_1314", "(53cd|53[0]|53[1][0])", 595).
exit("Pepoli_12_1314", "(53cd|53[0]|53[1][0])", 650).
enter("Pepoli_12_1314", "79", 650).
exit("Pepoli_12_1314", "79", 690).
enter("Pepoli_12_1314", "[68|11]", 690).
exit("Pepoli_12_1314", "[68|11]", 735).
enter("Pepoli_12_1314", "84", 735).
exit("Pepoli_12_1314", "84", 765).
enter("Pepoli_12_1314", "180", 765).
exit("Pepoli_12_1314", "180", 880).
origin("Pepoli_12_1570", "[210|43[0]]").
enter("Pepoli_12_1570", "[210|43[0]]", 0).
exit("Pepoli_12_1570", "[210|43[0]]", 80).
enter("Pepoli_12_1570", "118", 80).
exit("Pepoli_12_1570", "118", 140).
enter("Pepoli_12_1570", "65", 140).
exit("Pepoli_12_1570", "65", 185).
enter("Pepoli_12_1570", "57[0]", 185).
exit("Pepoli_12_1570", "57[0]", 270).
enter("Pepoli_12_1570", "57[1]", 270).
exit("Pepoli_12_1570", "57[1]", 285).
enter("Pepoli_12_1570", "62", 285).
exit("Pepoli_12_1570", "62", 335).
enter("Pepoli_12_1570", "159", 335).
exit("Pepoli_12_1570", "159", 440).
enter("Pepoli_12_1570", "42", 440).
exit("Pepoli_12_1570", "42", 460).
enter("Pepoli_12_1570", "39", 460).
exit("Pepoli_12_1570", "39", 480).
enter("Pepoli_12_1570", "35", 480).
exit("Pepoli_12_1570", "35", 535).
enter("Pepoli_12_1570", "38", 535).
exit("Pepoli_12_1570", "38", 595).
enter("Pepoli_12_1570", "50", 595).
exit("Pepoli_12_1570", "50", 625).
enter("Pepoli_12_1570", "19", 625).
exit("Pepoli_12_1570", "19", 660).
enter("Pepoli_12_1570", "[22|59]", 660).
exit("Pepoli_12_1570", "[22|59]", 700).
enter("Pepoli_12_1570", "(53cd|53[0]|53[1][0])", 700).
exit("Pepoli_12_1570", "(53cd|53[0]|53[1][0])", 720).
enter("Pepoli_12_1570", "79", 720).
exit("Pepoli_12_1570", "79", 740).
enter("Pepoli_12_1570", "[68|11]", 740).
exit("Pepoli_12_1570", "[68|11]", 785).
enter("Pepoli_12_1570", "84", 785).
exit("Pepoli_12_1570", "84", 805).
enter("Pepoli_12_1570", "180", 805).
exit("Pepoli_12_1570", "180", 830).
origin("Pepoli_11_1764", "201").
enter("Pepoli_11_1764", "201", 0).
exit("Pepoli_11_1764", "201", 135).
enter("Pepoli_11_1764", "201c", 135).
exit("Pepoli_11_1764", "201c", 170).
enter("Pepoli_11_1764", "204a[0]", 170).
exit("Pepoli_11_1764", "204a[0]", 290).
enter("Pepoli_11_1764", "124", 290).
exit("Pepoli_11_1764", "124", 335).
origin("XXI_Aprile_1_1004", "[22|59]").
enter("XXI_Aprile_1_1004", "[22|59]", 0).
exit("XXI_Aprile_1_1004", "[22|59]", 15).
enter("XXI_Aprile_1_1004", "(53cd|53[0])", 15).
exit("XXI_Aprile_1_1004", "(53cd|53[0])", 25).
enter("XXI_Aprile_1_1004", "78[1][1]", 25).
exit("XXI_Aprile_1_1004", "78[1][1]", 35).
enter("XXI_Aprile_1_1004", "[189[0]|189[1][0]+20000|189[1][1]]", 35).
exit("XXI_Aprile_1_1004", "[189[0]|189[1][0]+20000|189[1][1]]", 90).
enter("XXI_Aprile_1_1004", "191", 90).
exit("XXI_Aprile_1_1004", "191", 140).
enter("XXI_Aprile_1_1004", "[17|71]", 140).
exit("XXI_Aprile_1_1004", "[17|71]", 195).
enter("XXI_Aprile_1_1004", "86", 195).
exit("XXI_Aprile_1_1004", "86", 225).
origin("Pepoli_11_1870", "204a[0]").
enter("Pepoli_11_1870", "204a[0]", 0).
exit("Pepoli_11_1870", "204a[0]", 120).
enter("Pepoli_11_1870", "124", 120).
exit("Pepoli_11_1870", "124", 165).
origin("Pepoli_12_1608", "[210|43[0]]").
enter("Pepoli_12_1608", "[210|43[0]]", 0).
exit("Pepoli_12_1608", "[210|43[0]]", 65).
enter("Pepoli_12_1608", "118", 65).
exit("Pepoli_12_1608", "118", 105).
enter("Pepoli_12_1608", "65", 105).
exit("Pepoli_12_1608", "65", 140).
enter("Pepoli_12_1608", "57[0]", 140).
exit("Pepoli_12_1608", "57[0]", 165).
enter("Pepoli_12_1608", "57[1]", 165).
exit("Pepoli_12_1608", "57[1]", 190).
enter("Pepoli_12_1608", "62", 190).
exit("Pepoli_12_1608", "62", 210).
enter("Pepoli_12_1608", "159", 210).
exit("Pepoli_12_1608", "159", 245).
enter("Pepoli_12_1608", "42", 245).
exit("Pepoli_12_1608", "42", 295).
enter("Pepoli_12_1608", "39", 295).
exit("Pepoli_12_1608", "39", 335).
enter("Pepoli_12_1608", "35", 335).
exit("Pepoli_12_1608", "35", 385).
enter("Pepoli_12_1608", "38", 385).
exit("Pepoli_12_1608", "38", 455).
enter("Pepoli_12_1608", "50", 455).
exit("Pepoli_12_1608", "50", 520).
enter("Pepoli_12_1608", "19", 520).
exit("Pepoli_12_1608", "19", 550).
enter("Pepoli_12_1608", "[22|59]", 550).
exit("Pepoli_12_1608", "[22|59]", 620).
enter("Pepoli_12_1608", "(53cd|53[0]|53[1][0])", 620).
exit("Pepoli_12_1608", "(53cd|53[0]|53[1][0])", 645).
enter("Pepoli_12_1608", "79", 645).
exit("Pepoli_12_1608", "79", 665).
enter("Pepoli_12_1608", "[68|11]", 665).
exit("Pepoli_12_1608", "[68|11]", 710).
enter("Pepoli_12_1608", "84", 710).
exit("Pepoli_12_1608", "84", 730).
enter("Pepoli_12_1608", "180", 730).
exit("Pepoli_12_1608", "180", 845).
origin("XXI_Aprile_7_842", "[109[0]|109[1][0]+20003|109[1][1]]").
enter("XXI_Aprile_7_842", "[109[0]|109[1][0]+20003|109[1][1]]", 0).
exit("XXI_Aprile_7_842", "[109[0]|109[1][0]+20003|109[1][1]]", 20).
enter("XXI_Aprile_7_842", "120", 20).
exit("XXI_Aprile_7_842", "120", 70).
enter("XXI_Aprile_7_842", "117", 70).
exit("XXI_Aprile_7_842", "117", 115).
enter("XXI_Aprile_7_842", "209", 115).
exit("XXI_Aprile_7_842", "209", 155).
origin("XXI_Aprile_8_737", "[116|46]").
enter("XXI_Aprile_8_737", "[116|46]", 0).
exit("XXI_Aprile_8_737", "[116|46]", 95).
enter("XXI_Aprile_8_737", "134", 95).
exit("XXI_Aprile_8_737", "134", 105).
origin("Vittorio_Veneto_1_638", "224[0]").
enter("Vittorio_Veneto_1_638", "224[0]", 0).
exit("Vittorio_Veneto_1_638", "224[0]", 140).
enter("Vittorio_Veneto_1_638", "224[1]", 140).
exit("Vittorio_Veneto_1_638", "224[1]", 200).
enter("Vittorio_Veneto_1_638", "[181|18]", 200).
exit("Vittorio_Veneto_1_638", "[181|18]", 275).
enter("Vittorio_Veneto_1_638", "[17|71]", 275).
exit("Vittorio_Veneto_1_638", "[17|71]", 330).
enter("Vittorio_Veneto_1_638", "86", 330).
exit("Vittorio_Veneto_1_638", "86", 360).
origin("Vittorio_Veneto_82_595", "224[1]").
enter("Vittorio_Veneto_82_595", "224[1]", 0).
exit("Vittorio_Veneto_82_595", "224[1]", 60).
enter("Vittorio_Veneto_82_595", "[181|18]", 60).
exit("Vittorio_Veneto_82_595", "[181|18]", 135).
enter("Vittorio_Veneto_82_595", "69", 135).
exit("Vittorio_Veneto_82_595", "69", 230).
enter("Vittorio_Veneto_82_595", "161", 230).
exit("Vittorio_Veneto_82_595", "161", 280).
enter("Vittorio_Veneto_82_595", "122", 280).
exit("Vittorio_Veneto_82_595", "122", 335).
enter("Vittorio_Veneto_82_595", "[3|2]", 335).
exit("Vittorio_Veneto_82_595", "[3|2]", 370).
enter("Vittorio_Veneto_82_595", "[202|34]", 370).
exit("Vittorio_Veneto_82_595", "[202|34]", 420).
enter("Vittorio_Veneto_82_595", "134", 420).
exit("Vittorio_Veneto_82_595", "134", 430).
origin("XXI_Aprile_7_1009", "[13|104]").
enter("XXI_Aprile_7_1009", "[13|104]", 0).
exit("XXI_Aprile_7_1009", "[13|104]", 50).
enter("XXI_Aprile_7_1009", "16", 50).
exit("XXI_Aprile_7_1009", "16", 60).
enter("XXI_Aprile_7_1009", "37", 60).
exit("XXI_Aprile_7_1009", "37", 75).
enter("XXI_Aprile_7_1009", "36", 75).
exit("XXI_Aprile_7_1009", "36", 85).
enter("XXI_Aprile_7_1009", "40", 85).
exit("XXI_Aprile_7_1009", "40", 90).
enter("XXI_Aprile_7_1009", "41", 90).
exit("XXI_Aprile_7_1009", "41", 100).
enter("XXI_Aprile_7_1009", "160", 100).
exit("XXI_Aprile_7_1009", "160", 125).
enter("XXI_Aprile_7_1009", "61", 125).
exit("XXI_Aprile_7_1009", "61", 145).
enter("XXI_Aprile_7_1009", "58[0]", 145).
exit("XXI_Aprile_7_1009", "58[0]", 150).
enter("XXI_Aprile_7_1009", "58[1]", 150).
exit("XXI_Aprile_7_1009", "58[1]", 165).
enter("XXI_Aprile_7_1009", "66", 165).
exit("XXI_Aprile_7_1009", "66", 175).
enter("XXI_Aprile_7_1009", "117", 175).
exit("XXI_Aprile_7_1009", "117", 225).
enter("XXI_Aprile_7_1009", "209", 225).
exit("XXI_Aprile_7_1009", "209", 260).
origin("Togliatti_10_671", "85").
enter("Togliatti_10_671", "85", 0).
exit("Togliatti_10_671", "85", 60).
enter("Togliatti_10_671", "72[0]", 60).
exit("Togliatti_10_671", "72[0]", 135).
enter("Togliatti_10_671", "72[1]", 135).
exit("Togliatti_10_671", "72[1]", 175).
enter("Togliatti_10_671", "69", 175).
exit("Togliatti_10_671", "69", 270).
enter("Togliatti_10_671", "161", 270).
exit("Togliatti_10_671", "161", 320).
enter("Togliatti_10_671", "122", 320).
exit("Togliatti_10_671", "122", 420).
enter("Togliatti_10_671", "1b", 420).
exit("Togliatti_10_671", "1b", 480).
enter("Togliatti_10_671", "1", 480).
exit("Togliatti_10_671", "1", 515).
enter("Togliatti_10_671", "204a[0]", 515).
exit("Togliatti_10_671", "204a[0]", 635).
enter("Togliatti_10_671", "204b[0]", 635).
exit("Togliatti_10_671", "204b[0]", 640).
enter("Togliatti_10_671", "204[1][0]", 640).
exit("Togliatti_10_671", "204[1][0]", 675).
enter("Togliatti_10_671", "204[1][1]", 675).
exit("Togliatti_10_671", "204[1][1]", 875).
origin("XXI_Aprile_113_565", "122").
enter("XXI_Aprile_113_565", "122", 0).
exit("XXI_Aprile_113_565", "122", 100).
enter("XXI_Aprile_113_565", "1b", 100).
exit("XXI_Aprile_113_565", "1b", 160).
enter("XXI_Aprile_113_565", "1", 160).
exit("XXI_Aprile_113_565", "1", 195).
enter("XXI_Aprile_113_565", "204a[0]", 195).
exit("XXI_Aprile_113_565", "204a[0]", 315).
enter("XXI_Aprile_113_565", "124", 315).
exit("XXI_Aprile_113_565", "124", 360).
origin("XXI_Aprile_94_863", "161").
enter("XXI_Aprile_94_863", "161", 0).
exit("XXI_Aprile_94_863", "161", 20).
enter("XXI_Aprile_94_863", "122", 20).
exit("XXI_Aprile_94_863", "122", 335).
enter("XXI_Aprile_94_863", "1b", 335).
exit("XXI_Aprile_94_863", "1b", 645).
enter("XXI_Aprile_94_863", "1", 645).
exit("XXI_Aprile_94_863", "1", 765).
enter("XXI_Aprile_94_863", "204a[0]", 765).
exit("XXI_Aprile_94_863", "204a[0]", 1790).
enter("XXI_Aprile_94_863", "204b[0]", 1790).
exit("XXI_Aprile_94_863", "204b[0]", 2420).
enter("XXI_Aprile_94_863", "54", 2420).
exit("XXI_Aprile_94_863", "54", 2455).
origin("Pepoli_3_1092", "38").
enter("Pepoli_3_1092", "38", 0).
exit("Pepoli_3_1092", "38", 60).
enter("Pepoli_3_1092", "15", 60).
exit("Pepoli_3_1092", "15", 135).
enter("Pepoli_3_1092", "14", 135).
exit("Pepoli_3_1092", "14", 175).
origin("XXI_Aprile_93_503", "161").
enter("XXI_Aprile_93_503", "161", 0).
exit("XXI_Aprile_93_503", "161", 50).
enter("XXI_Aprile_93_503", "122", 50).
exit("XXI_Aprile_93_503", "122", 150).
enter("XXI_Aprile_93_503", "1b", 150).
exit("XXI_Aprile_93_503", "1b", 210).
enter("XXI_Aprile_93_503", "1", 210).
exit("XXI_Aprile_93_503", "1", 245).
enter("XXI_Aprile_93_503", "204a[0]", 245).
exit("XXI_Aprile_93_503", "204a[0]", 365).
enter("XXI_Aprile_93_503", "204b[0]", 365).
exit("XXI_Aprile_93_503", "204b[0]", 370).
enter("XXI_Aprile_93_503", "54", 370).
exit("XXI_Aprile_93_503", "54", 395).
origin("Pepoli_11_1767", "43[1]").
enter("Pepoli_11_1767", "43[1]", 0).
exit("Pepoli_11_1767", "43[1]", 70).
enter("Pepoli_11_1767", "201", 70).
exit("Pepoli_11_1767", "201", 205).
enter("Pepoli_11_1767", "201c", 205).
exit("Pepoli_11_1767", "201c", 240).
enter("Pepoli_11_1767", "204a[0]", 240).
exit("Pepoli_11_1767", "204a[0]", 360).
enter("Pepoli_11_1767", "124", 360).
exit("Pepoli_11_1767", "124", 405).
origin("XXI_Aprile_7_946", "74").
enter("XXI_Aprile_7_946", "74", 0).
exit("XXI_Aprile_7_946", "74", 205).
enter("XXI_Aprile_7_946", "72[1]", 205).
exit("XXI_Aprile_7_946", "72[1]", 265).
enter("XXI_Aprile_7_946", "69", 265).
exit("XXI_Aprile_7_946", "69", 360).
enter("XXI_Aprile_7_946", "161", 360).
exit("XXI_Aprile_7_946", "161", 425).
enter("XXI_Aprile_7_946", "194", 425).
exit("XXI_Aprile_7_946", "194", 445).
enter("XXI_Aprile_7_946", "91", 445).
exit("XXI_Aprile_7_946", "91", 460).
enter("XXI_Aprile_7_946", "186", 460).
exit("XXI_Aprile_7_946", "186", 575).
enter("XXI_Aprile_7_946", "[109[0]|109[1][0]+20003|109[1][1]]", 575).
exit("XXI_Aprile_7_946", "[109[0]|109[1][0]+20003|109[1][1]]", 585).
enter("XXI_Aprile_7_946", "120", 585).
exit("XXI_Aprile_7_946", "120", 605).
enter("XXI_Aprile_7_946", "117", 605).
exit("XXI_Aprile_7_946", "117", 685).
enter("XXI_Aprile_7_946", "209", 685).
exit("XXI_Aprile_7_946", "209", 1050).
origin("Pepoli_5_1543", "[210|43[0]]").
enter("Pepoli_5_1543", "[210|43[0]]", 0).
exit("Pepoli_5_1543", "[210|43[0]]", 185).
enter("Pepoli_5_1543", "118", 185).
exit("Pepoli_5_1543", "118", 235).
enter("Pepoli_5_1543", "65", 235).
exit("Pepoli_5_1543", "65", 280).
enter("Pepoli_5_1543", "[200|60]", 280).
exit("Pepoli_5_1543", "[200|60]", 305).
origin("Pepoli_11_1822", "204a[0]").
enter("Pepoli_11_1822", "204a[0]", 0).
exit("Pepoli_11_1822", "204a[0]", 120).
enter("Pepoli_11_1822", "124", 120).
exit("Pepoli_11_1822", "124", 165).
origin("Togliatti_11_681", "201").
enter("Togliatti_11_681", "201", 0).
exit("Togliatti_11_681", "201", 145).
enter("Togliatti_11_681", "201c", 145).
exit("Togliatti_11_681", "201c", 320).
enter("Togliatti_11_681", "204a[0]", 320).
exit("Togliatti_11_681", "204a[0]", 375).
enter("Togliatti_11_681", "124", 375).
exit("Togliatti_11_681", "124", 1290).
origin("Pepoli_11_1973", "204a[0]").
enter("Pepoli_11_1973", "204a[0]", 0).
exit("Pepoli_11_1973", "204a[0]", 120).
enter("Pepoli_11_1973", "124", 120).
exit("Pepoli_11_1973", "124", 165).
origin("XXI_Aprile_7_982", "[87[0]|20001+87[1][0]|87[1][1]]").
enter("XXI_Aprile_7_982", "[87[0]|20001+87[1][0]|87[1][1]]", 0).
exit("XXI_Aprile_7_982", "[87[0]|20001+87[1][0]|87[1][1]]", 15).
enter("XXI_Aprile_7_982", "m90", 15).
exit("XXI_Aprile_7_982", "m90", 25).
enter("XXI_Aprile_7_982", "171", 25).
exit("XXI_Aprile_7_982", "171", 85).
enter("XXI_Aprile_7_982", "161", 85).
exit("XXI_Aprile_7_982", "161", 110).
enter("XXI_Aprile_7_982", "194", 110).
exit("XXI_Aprile_7_982", "194", 140).
enter("XXI_Aprile_7_982", "91", 140).
exit("XXI_Aprile_7_982", "91", 145).
enter("XXI_Aprile_7_982", "186", 145).
exit("XXI_Aprile_7_982", "186", 155).
enter("XXI_Aprile_7_982", "[109[0]|109[1][0]+20003|109[1][1]]", 155).
exit("XXI_Aprile_7_982", "[109[0]|109[1][0]+20003|109[1][1]]", 165).
enter("XXI_Aprile_7_982", "120", 165).
exit("XXI_Aprile_7_982", "120", 205).
enter("XXI_Aprile_7_982", "117", 205).
exit("XXI_Aprile_7_982", "117", 255).
enter("XXI_Aprile_7_982", "209", 255).
exit("XXI_Aprile_7_982", "209", 295).
origin("Costa_11_841", "122").
enter("Costa_11_841", "122", 0).
exit("Costa_11_841", "122", 100).
enter("Costa_11_841", "1b", 100).
exit("Costa_11_841", "1b", 160).
enter("Costa_11_841", "1", 160).
exit("Costa_11_841", "1", 195).
enter("Costa_11_841", "204a[0]", 195).
exit("Costa_11_841", "204a[0]", 315).
enter("Costa_11_841", "124", 315).
exit("Costa_11_841", "124", 360).
origin("XXI_Aprile_7_711", "209").
enter("XXI_Aprile_7_711", "209", 0).
exit("XXI_Aprile_7_711", "209", 50).
origin("Costa_91_166", "204a[0]").
enter("Costa_91_166", "204a[0]", 0).
exit("Costa_91_166", "204a[0]", 80).
enter("Costa_91_166", "204b[0]", 80).
exit("Costa_91_166", "204b[0]", 85).
enter("Costa_91_166", "54", 85).
exit("Costa_91_166", "54", 110).
origin("Pepoli_3_1261", "159").
enter("Pepoli_3_1261", "159", 0).
exit("Pepoli_3_1261", "159", 105).
enter("Pepoli_3_1261", "42", 105).
exit("Pepoli_3_1261", "42", 125).
enter("Pepoli_3_1261", "39", 125).
exit("Pepoli_3_1261", "39", 145).
enter("Pepoli_3_1261", "35", 145).
exit("Pepoli_3_1261", "35", 200).
enter("Pepoli_3_1261", "38", 200).
exit("Pepoli_3_1261", "38", 260).
enter("Pepoli_3_1261", "15", 260).
exit("Pepoli_3_1261", "15", 335).
enter("Pepoli_3_1261", "14", 335).
exit("Pepoli_3_1261", "14", 375).
origin("XXI_Aprile_7_902", "[89[0]|20002+89[1][0]|89[1][1]]").
enter("XXI_Aprile_7_902", "[89[0]|20002+89[1][0]|89[1][1]]", 0).
exit("XXI_Aprile_7_902", "[89[0]|20002+89[1][0]|89[1][1]]", 20).
enter("XXI_Aprile_7_902", "91", 20).
exit("XXI_Aprile_7_902", "91", 25).
enter("XXI_Aprile_7_902", "186", 25).
exit("XXI_Aprile_7_902", "186", 90).
enter("XXI_Aprile_7_902", "[109[0]|109[1][0]+20003|109[1][1]]", 90).
exit("XXI_Aprile_7_902", "[109[0]|109[1][0]+20003|109[1][1]]", 120).
enter("XXI_Aprile_7_902", "[116|46]", 120).
exit("XXI_Aprile_7_902", "[116|46]", 165).
enter("XXI_Aprile_7_902", "113", 165).
exit("XXI_Aprile_7_902", "113", 235).
enter("XXI_Aprile_7_902", "209", 235).
exit("XXI_Aprile_7_902", "209", 315).
origin("Vittorio_Veneto_73_583", "[181|18]").
enter("Vittorio_Veneto_73_583", "[181|18]", 0).
exit("Vittorio_Veneto_73_583", "[181|18]", 75).
enter("Vittorio_Veneto_73_583", "69", 75).
exit("Vittorio_Veneto_73_583", "69", 170).
enter("Vittorio_Veneto_73_583", "161", 170).
exit("Vittorio_Veneto_73_583", "161", 220).
enter("Vittorio_Veneto_73_583", "122", 220).
exit("Vittorio_Veneto_73_583", "122", 320).
enter("Vittorio_Veneto_73_583", "[3|2]", 320).
exit("Vittorio_Veneto_73_583", "[3|2]", 360).
enter("Vittorio_Veneto_73_583", "[202|34]", 360).
exit("Vittorio_Veneto_73_583", "[202|34]", 410).
enter("Vittorio_Veneto_73_583", "113", 410).
exit("Vittorio_Veneto_73_583", "113", 450).
enter("Vittorio_Veneto_73_583", "209", 450).
exit("Vittorio_Veneto_73_583", "209", 485).
origin("XXI_Aprile_7_919", "117").
enter("XXI_Aprile_7_919", "117", 0).
exit("XXI_Aprile_7_919", "117", 50).
enter("XXI_Aprile_7_919", "209", 50).
exit("XXI_Aprile_7_919", "209", 90).
origin("Pepoli_1_1519", "[210|43[0]]").
enter("Pepoli_1_1519", "[210|43[0]]", 0).
exit("Pepoli_1_1519", "[210|43[0]]", 65).
enter("Pepoli_1_1519", "118", 65).
exit("Pepoli_1_1519", "118", 125).
enter("Pepoli_1_1519", "65", 125).
exit("Pepoli_1_1519", "65", 170).
enter("Pepoli_1_1519", "57[0]", 170).
exit("Pepoli_1_1519", "57[0]", 215).
enter("Pepoli_1_1519", "57[1]", 215).
exit("Pepoli_1_1519", "57[1]", 230).
enter("Pepoli_1_1519", "62", 230).
exit("Pepoli_1_1519", "62", 280).
enter("Pepoli_1_1519", "159", 280).
exit("Pepoli_1_1519", "159", 385).
enter("Pepoli_1_1519", "42", 385).
exit("Pepoli_1_1519", "42", 405).
enter("Pepoli_1_1519", "39", 405).
exit("Pepoli_1_1519", "39", 425).
enter("Pepoli_1_1519", "35", 425).
exit("Pepoli_1_1519", "35", 480).
enter("Pepoli_1_1519", "38", 480).
exit("Pepoli_1_1519", "38", 540).
enter("Pepoli_1_1519", "50", 540).
exit("Pepoli_1_1519", "50", 555).
enter("Pepoli_1_1519", "19", 555).
exit("Pepoli_1_1519", "19", 575).
enter("Pepoli_1_1519", "[22|59]", 575).
exit("Pepoli_1_1519", "[22|59]", 595).
enter("Pepoli_1_1519", "(53cd|53[0]|53[1][0])", 595).
exit("Pepoli_1_1519", "(53cd|53[0]|53[1][0])", 615).
enter("Pepoli_1_1519", "79", 615).
exit("Pepoli_1_1519", "79", 630).
enter("Pepoli_1_1519", "[68|11]", 630).
exit("Pepoli_1_1519", "[68|11]", 670).
enter("Pepoli_1_1519", "86", 670).
exit("Pepoli_1_1519", "86", 700).
origin("XXI_Aprile_93_189", "204a[0]").
enter("XXI_Aprile_93_189", "204a[0]", 0).
exit("XXI_Aprile_93_189", "204a[0]", 55).
enter("XXI_Aprile_93_189", "204b[0]", 55).
exit("XXI_Aprile_93_189", "204b[0]", 80).
enter("XXI_Aprile_93_189", "54", 80).
exit("XXI_Aprile_93_189", "54", 1250).
origin("Togliatti_11_697", "85").
enter("Togliatti_11_697", "85", 0).
exit("Togliatti_11_697", "85", 60).
enter("Togliatti_11_697", "72[0]", 60).
exit("Togliatti_11_697", "72[0]", 135).
enter("Togliatti_11_697", "72[1]", 135).
exit("Togliatti_11_697", "72[1]", 175).
enter("Togliatti_11_697", "69", 175).
exit("Togliatti_11_697", "69", 270).
enter("Togliatti_11_697", "161", 270).
exit("Togliatti_11_697", "161", 320).
enter("Togliatti_11_697", "122", 320).
exit("Togliatti_11_697", "122", 420).
enter("Togliatti_11_697", "1b", 420).
exit("Togliatti_11_697", "1b", 480).
enter("Togliatti_11_697", "1", 480).
exit("Togliatti_11_697", "1", 515).
enter("Togliatti_11_697", "204a[0]", 515).
exit("Togliatti_11_697", "204a[0]", 635).
enter("Togliatti_11_697", "124", 635).
exit("Togliatti_11_697", "124", 680).
origin("XXI_Aprile_102_713", "69").
enter("XXI_Aprile_102_713", "69", 0).
exit("XXI_Aprile_102_713", "69", 95).
enter("XXI_Aprile_102_713", "161", 95).
exit("XXI_Aprile_102_713", "161", 145).
enter("XXI_Aprile_102_713", "122", 145).
exit("XXI_Aprile_102_713", "122", 245).
enter("XXI_Aprile_102_713", "1b", 245).
exit("XXI_Aprile_102_713", "1b", 305).
enter("XXI_Aprile_102_713", "1", 305).
exit("XXI_Aprile_102_713", "1", 340).
enter("XXI_Aprile_102_713", "204a[0]", 340).
exit("XXI_Aprile_102_713", "204a[0]", 460).
enter("XXI_Aprile_102_713", "204b[0]", 460).
exit("XXI_Aprile_102_713", "204b[0]", 465).
enter("XXI_Aprile_102_713", "204[1][0]", 465).
exit("XXI_Aprile_102_713", "204[1][0]", 500).
enter("XXI_Aprile_102_713", "204[1][1]", 500).
exit("XXI_Aprile_102_713", "204[1][1]", 535).
origin("Pepoli_11_1857", "43[1]").
enter("Pepoli_11_1857", "43[1]", 0).
exit("Pepoli_11_1857", "43[1]", 70).
enter("Pepoli_11_1857", "201", 70).
exit("Pepoli_11_1857", "201", 205).
enter("Pepoli_11_1857", "201c", 205).
exit("Pepoli_11_1857", "201c", 240).
enter("Pepoli_11_1857", "204a[0]", 240).
exit("Pepoli_11_1857", "204a[0]", 360).
enter("Pepoli_11_1857", "124", 360).
exit("Pepoli_11_1857", "124", 405).
origin("Togliatti_10_584", "72[0]").
enter("Togliatti_10_584", "72[0]", 0).
exit("Togliatti_10_584", "72[0]", 75).
enter("Togliatti_10_584", "72[1]", 75).
exit("Togliatti_10_584", "72[1]", 115).
enter("Togliatti_10_584", "69", 115).
exit("Togliatti_10_584", "69", 210).
enter("Togliatti_10_584", "161", 210).
exit("Togliatti_10_584", "161", 260).
enter("Togliatti_10_584", "122", 260).
exit("Togliatti_10_584", "122", 315).
enter("Togliatti_10_584", "1b", 315).
exit("Togliatti_10_584", "1b", 375).
enter("Togliatti_10_584", "1", 375).
exit("Togliatti_10_584", "1", 410).
enter("Togliatti_10_584", "204a[0]", 410).
exit("Togliatti_10_584", "204a[0]", 530).
enter("Togliatti_10_584", "204b[0]", 530).
exit("Togliatti_10_584", "204b[0]", 535).
enter("Togliatti_10_584", "204[1][0]", 535).
exit("Togliatti_10_584", "204[1][0]", 570).
enter("Togliatti_10_584", "204[1][1]", 570).
exit("Togliatti_10_584", "204[1][1]", 605).
origin("Pepoli_2_1217", "42").
enter("Pepoli_2_1217", "42", 0).
exit("Pepoli_2_1217", "42", 20).
enter("Pepoli_2_1217", "39", 20).
exit("Pepoli_2_1217", "39", 40).
enter("Pepoli_2_1217", "35", 40).
exit("Pepoli_2_1217", "35", 95).
enter("Pepoli_2_1217", "38", 95).
exit("Pepoli_2_1217", "38", 155).
enter("Pepoli_2_1217", "50", 155).
exit("Pepoli_2_1217", "50", 185).
enter("Pepoli_2_1217", "19", 185).
exit("Pepoli_2_1217", "19", 220).
enter("Pepoli_2_1217", "[22|59]", 220).
exit("Pepoli_2_1217", "[22|59]", 290).
enter("Pepoli_2_1217", "(53cd|53[0]|53[1][0]|53[1][1][0]|77[1][0])", 290).
exit("Pepoli_2_1217", "(53cd|53[0]|53[1][0]|53[1][1][0]|77[1][0])", 300).
enter("Pepoli_2_1217", "77[1][1]", 300).
exit("Pepoli_2_1217", "77[1][1]", 340).
origin("XXI_Aprile_12_980", "79").
enter("XXI_Aprile_12_980", "79", 0).
exit("XXI_Aprile_12_980", "79", 20).
enter("XXI_Aprile_12_980", "[68|11]", 20).
exit("XXI_Aprile_12_980", "[68|11]", 65).
enter("XXI_Aprile_12_980", "84", 65).
exit("XXI_Aprile_12_980", "84", 85).
enter("XXI_Aprile_12_980", "180", 85).
exit("XXI_Aprile_12_980", "180", 110).
origin("Vittorio_Veneto_10_610", "224[0]").
enter("Vittorio_Veneto_10_610", "224[0]", 0).
exit("Vittorio_Veneto_10_610", "224[0]", 80).
enter("Vittorio_Veneto_10_610", "224[1]", 80).
exit("Vittorio_Veneto_10_610", "224[1]", 145).
enter("Vittorio_Veneto_10_610", "[181|18]", 145).
exit("Vittorio_Veneto_10_610", "[181|18]", 350).
enter("Vittorio_Veneto_10_610", "69", 350).
exit("Vittorio_Veneto_10_610", "69", 425).
enter("Vittorio_Veneto_10_610", "161", 425).
exit("Vittorio_Veneto_10_610", "161", 485).
enter("Vittorio_Veneto_10_610", "122", 485).
exit("Vittorio_Veneto_10_610", "122", 990).
enter("Vittorio_Veneto_10_610", "1b", 990).
exit("Vittorio_Veneto_10_610", "1b", 1705).
enter("Vittorio_Veneto_10_610", "1", 1705).
exit("Vittorio_Veneto_10_610", "1", 2755).
enter("Vittorio_Veneto_10_610", "204a[0]", 2755).
exit("Vittorio_Veneto_10_610", "204a[0]", 2825).
enter("Vittorio_Veneto_10_610", "204b[0]", 2825).
exit("Vittorio_Veneto_10_610", "204b[0]", 3125).
enter("Vittorio_Veneto_10_610", "204[1][0]", 3125).
exit("Vittorio_Veneto_10_610", "204[1][0]", 3160).
enter("Vittorio_Veneto_10_610", "204[1][1]", 3160).
exit("Vittorio_Veneto_10_610", "204[1][1]", 3210).
origin("XXI_Aprile_7_792", "91").
enter("XXI_Aprile_7_792", "91", 0).
exit("XXI_Aprile_7_792", "91", 20).
enter("XXI_Aprile_7_792", "186", 20).
exit("XXI_Aprile_7_792", "186", 50).
enter("XXI_Aprile_7_792", "[109[0]|109[1][0]+20003|109[1][1]]", 50).
exit("XXI_Aprile_7_792", "[109[0]|109[1][0]+20003|109[1][1]]", 85).
enter("XXI_Aprile_7_792", "[116|46]", 85).
exit("XXI_Aprile_7_792", "[116|46]", 135).
enter("XXI_Aprile_7_792", "113", 135).
exit("XXI_Aprile_7_792", "113", 185).
enter("XXI_Aprile_7_792", "209", 185).
exit("XXI_Aprile_7_792", "209", 220).
origin("XXI_Aprile_9_497", "161").
enter("XXI_Aprile_9_497", "161", 0).
exit("XXI_Aprile_9_497", "161", 50).
enter("XXI_Aprile_9_497", "122", 50).
exit("XXI_Aprile_9_497", "122", 150).
enter("XXI_Aprile_9_497", "1b", 150).
exit("XXI_Aprile_9_497", "1b", 210).
enter("XXI_Aprile_9_497", "1", 210).
exit("XXI_Aprile_9_497", "1", 245).
enter("XXI_Aprile_9_497", "204a[0]", 245).
exit("XXI_Aprile_9_497", "204a[0]", 365).
enter("XXI_Aprile_9_497", "204b[0]", 365).
exit("XXI_Aprile_9_497", "204b[0]", 370).
enter("XXI_Aprile_9_497", "54", 370).
exit("XXI_Aprile_9_497", "54", 395).
origin("Togliatti_10_598", "72[0]").
enter("Togliatti_10_598", "72[0]", 0).
exit("Togliatti_10_598", "72[0]", 75).
enter("Togliatti_10_598", "72[1]", 75).
exit("Togliatti_10_598", "72[1]", 115).
enter("Togliatti_10_598", "69", 115).
exit("Togliatti_10_598", "69", 210).
enter("Togliatti_10_598", "161", 210).
exit("Togliatti_10_598", "161", 260).
enter("Togliatti_10_598", "122", 260).
exit("Togliatti_10_598", "122", 315).
enter("Togliatti_10_598", "1b", 315).
exit("Togliatti_10_598", "1b", 375).
enter("Togliatti_10_598", "1", 375).
exit("Togliatti_10_598", "1", 410).
enter("Togliatti_10_598", "204a[0]", 410).
exit("Togliatti_10_598", "204a[0]", 530).
enter("Togliatti_10_598", "204b[0]", 530).
exit("Togliatti_10_598", "204b[0]", 535).
enter("Togliatti_10_598", "204[1][0]", 535).
exit("Togliatti_10_598", "204[1][0]", 570).
enter("Togliatti_10_598", "204[1][1]", 570).
exit("Togliatti_10_598", "204[1][1]", 605).
origin("XXI_Aprile_12_986", "79").
enter("XXI_Aprile_12_986", "79", 0).
exit("XXI_Aprile_12_986", "79", 20).
enter("XXI_Aprile_12_986", "[68|11]", 20).
exit("XXI_Aprile_12_986", "[68|11]", 65).
enter("XXI_Aprile_12_986", "84", 65).
exit("XXI_Aprile_12_986", "84", 85).
enter("XXI_Aprile_12_986", "180", 85).
exit("XXI_Aprile_12_986", "180", 150).
origin("Pepoli_3_1392", "57[0]").
enter("Pepoli_3_1392", "57[0]", 0).
exit("Pepoli_3_1392", "57[0]", 100).
enter("Pepoli_3_1392", "57[1]", 100).
exit("Pepoli_3_1392", "57[1]", 120).
enter("Pepoli_3_1392", "62", 120).
exit("Pepoli_3_1392", "62", 145).
enter("Pepoli_3_1392", "159", 145).
exit("Pepoli_3_1392", "159", 175).
enter("Pepoli_3_1392", "42", 175).
exit("Pepoli_3_1392", "42", 185).
enter("Pepoli_3_1392", "39", 185).
exit("Pepoli_3_1392", "39", 265).
enter("Pepoli_3_1392", "35", 265).
exit("Pepoli_3_1392", "35", 320).
enter("Pepoli_3_1392", "38", 320).
exit("Pepoli_3_1392", "38", 355).
enter("Pepoli_3_1392", "33", 355).
exit("Pepoli_3_1392", "33", 385).
enter("Pepoli_3_1392", "10", 385).
exit("Pepoli_3_1392", "10", 425).
origin("Pepoli_3_976", "15").
enter("Pepoli_3_976", "15", 0).
exit("Pepoli_3_976", "15", 75).
enter("Pepoli_3_976", "14", 75).
exit("Pepoli_3_976", "14", 115).
origin("Vittorio_Veneto_2_592", "224[1]").
enter("Vittorio_Veneto_2_592", "224[1]", 0).
exit("Vittorio_Veneto_2_592", "224[1]", 60).
enter("Vittorio_Veneto_2_592", "[181|18]", 60).
exit("Vittorio_Veneto_2_592", "[181|18]", 135).
enter("Vittorio_Veneto_2_592", "[17|71]", 135).
exit("Vittorio_Veneto_2_592", "[17|71]", 190).
enter("Vittorio_Veneto_2_592", "67", 190).
exit("Vittorio_Veneto_2_592", "67", 200).
enter("Vittorio_Veneto_2_592", "[80|127]", 200).
exit("Vittorio_Veneto_2_592", "[80|127]", 220).
enter("Vittorio_Veneto_2_592", "(77[1][0])", 220).
exit("Vittorio_Veneto_2_592", "(77[1][0])", 240).
enter("Vittorio_Veneto_2_592", "77[1][1]", 240).
exit("Vittorio_Veneto_2_592", "77[1][1]", 280).
origin("XXI_Aprile_7_957", "[189[0]|189[1][0]+20000|189[1][1]]").
enter("XXI_Aprile_7_957", "[189[0]|189[1][0]+20000|189[1][1]]", 0).
exit("XXI_Aprile_7_957", "[189[0]|189[1][0]+20000|189[1][1]]", 125).
enter("XXI_Aprile_7_957", "188", 125).
exit("XXI_Aprile_7_957", "188", 195).
enter("XXI_Aprile_7_957", "[87[0]|20001+87[1][0]|87[1][1]]", 195).
exit("XXI_Aprile_7_957", "[87[0]|20001+87[1][0]|87[1][1]]", 215).
enter("XXI_Aprile_7_957", "m90", 215).
exit("XXI_Aprile_7_957", "m90", 230).
enter("XXI_Aprile_7_957", "[89[0]|20002+89[1][0]|89[1][1]]", 230).
exit("XXI_Aprile_7_957", "[89[0]|20002+89[1][0]|89[1][1]]", 305).
enter("XXI_Aprile_7_957", "91", 305).
exit("XXI_Aprile_7_957", "91", 325).
enter("XXI_Aprile_7_957", "186", 325).
exit("XXI_Aprile_7_957", "186", 355).
enter("XXI_Aprile_7_957", "[109[0]|109[1][0]+20003|109[1][1]]", 355).
exit("XXI_Aprile_7_957", "[109[0]|109[1][0]+20003|109[1][1]]", 390).
enter("XXI_Aprile_7_957", "[116|46]", 390).
exit("XXI_Aprile_7_957", "[116|46]", 440).
enter("XXI_Aprile_7_957", "113", 440).
exit("XXI_Aprile_7_957", "113", 480).
enter("XXI_Aprile_7_957", "209", 480).
exit("XXI_Aprile_7_957", "209", 515).
origin("Pepoli_3_1602", "[210|43[0]]").
enter("Pepoli_3_1602", "[210|43[0]]", 0).
exit("Pepoli_3_1602", "[210|43[0]]", 65).
enter("Pepoli_3_1602", "118", 65).
exit("Pepoli_3_1602", "118", 80).
enter("Pepoli_3_1602", "65", 80).
exit("Pepoli_3_1602", "65", 105).
enter("Pepoli_3_1602", "57[0]", 105).
exit("Pepoli_3_1602", "57[0]", 120).
enter("Pepoli_3_1602", "57[1]", 120).
exit("Pepoli_3_1602", "57[1]", 125).
enter("Pepoli_3_1602", "62", 125).
exit("Pepoli_3_1602", "62", 145).
enter("Pepoli_3_1602", "159", 145).
exit("Pepoli_3_1602", "159", 180).
enter("Pepoli_3_1602", "42", 180).
exit("Pepoli_3_1602", "42", 195).
enter("Pepoli_3_1602", "39", 195).
exit("Pepoli_3_1602", "39", 235).
enter("Pepoli_3_1602", "35", 235).
exit("Pepoli_3_1602", "35", 290).
enter("Pepoli_3_1602", "38", 290).
exit("Pepoli_3_1602", "38", 350).
enter("Pepoli_3_1602", "15", 350).
exit("Pepoli_3_1602", "15", 395).
enter("Pepoli_3_1602", "14", 395).
exit("Pepoli_3_1602", "14", 405).
origin("Pepoli_11_1651", "201").
enter("Pepoli_11_1651", "201", 0).
exit("Pepoli_11_1651", "201", 135).
enter("Pepoli_11_1651", "201c", 135).
exit("Pepoli_11_1651", "201c", 170).
enter("Pepoli_11_1651", "204a[0]", 170).
exit("Pepoli_11_1651", "204a[0]", 290).
enter("Pepoli_11_1651", "124", 290).
exit("Pepoli_11_1651", "124", 335).
origin("Vittorio_Veneto_10_669", "224[0]").
enter("Vittorio_Veneto_10_669", "224[0]", 0).
exit("Vittorio_Veneto_10_669", "224[0]", 140).
enter("Vittorio_Veneto_10_669", "224[1]", 140).
exit("Vittorio_Veneto_10_669", "224[1]", 200).
enter("Vittorio_Veneto_10_669", "[181|18]", 200).
exit("Vittorio_Veneto_10_669", "[181|18]", 275).
enter("Vittorio_Veneto_10_669", "69", 275).
exit("Vittorio_Veneto_10_669", "69", 370).
enter("Vittorio_Veneto_10_669", "161", 370).
exit("Vittorio_Veneto_10_669", "161", 395).
enter("Vittorio_Veneto_10_669", "122", 395).
exit("Vittorio_Veneto_10_669", "122", 495).
enter("Vittorio_Veneto_10_669", "1b", 495).
exit("Vittorio_Veneto_10_669", "1b", 555).
enter("Vittorio_Veneto_10_669", "1", 555).
exit("Vittorio_Veneto_10_669", "1", 590).
enter("Vittorio_Veneto_10_669", "204a[0]", 590).
exit("Vittorio_Veneto_10_669", "204a[0]", 710).
enter("Vittorio_Veneto_10_669", "204b[0]", 710).
exit("Vittorio_Veneto_10_669", "204b[0]", 715).
enter("Vittorio_Veneto_10_669", "204[1][0]", 715).
exit("Vittorio_Veneto_10_669", "204[1][0]", 750).
enter("Vittorio_Veneto_10_669", "204[1][1]", 750).
exit("Vittorio_Veneto_10_669", "204[1][1]", 785).
origin("Vittorio_Veneto_10_517", "[181|18]").
enter("Vittorio_Veneto_10_517", "[181|18]", 0).
exit("Vittorio_Veneto_10_517", "[181|18]", 75).
enter("Vittorio_Veneto_10_517", "69", 75).
exit("Vittorio_Veneto_10_517", "69", 170).
enter("Vittorio_Veneto_10_517", "161", 170).
exit("Vittorio_Veneto_10_517", "161", 220).
enter("Vittorio_Veneto_10_517", "122", 220).
exit("Vittorio_Veneto_10_517", "122", 320).
enter("Vittorio_Veneto_10_517", "1b", 320).
exit("Vittorio_Veneto_10_517", "1b", 380).
enter("Vittorio_Veneto_10_517", "1", 380).
exit("Vittorio_Veneto_10_517", "1", 415).
enter("Vittorio_Veneto_10_517", "204a[0]", 415).
exit("Vittorio_Veneto_10_517", "204a[0]", 535).
enter("Vittorio_Veneto_10_517", "204b[0]", 535).
exit("Vittorio_Veneto_10_517", "204b[0]", 540).
enter("Vittorio_Veneto_10_517", "204[1][0]", 540).
exit("Vittorio_Veneto_10_517", "204[1][0]", 575).
enter("Vittorio_Veneto_10_517", "204[1][1]", 575).
exit("Vittorio_Veneto_10_517", "204[1][1]", 610).
origin("Vittorio_Veneto_73_670", "224[0]").
enter("Vittorio_Veneto_73_670", "224[0]", 0).
exit("Vittorio_Veneto_73_670", "224[0]", 140).
enter("Vittorio_Veneto_73_670", "224[1]", 140).
exit("Vittorio_Veneto_73_670", "224[1]", 200).
enter("Vittorio_Veneto_73_670", "[181|18]", 200).
exit("Vittorio_Veneto_73_670", "[181|18]", 275).
enter("Vittorio_Veneto_73_670", "69", 275).
exit("Vittorio_Veneto_73_670", "69", 370).
enter("Vittorio_Veneto_73_670", "161", 370).
exit("Vittorio_Veneto_73_670", "161", 395).
enter("Vittorio_Veneto_73_670", "122", 395).
exit("Vittorio_Veneto_73_670", "122", 495).
enter("Vittorio_Veneto_73_670", "[3|2]", 495).
exit("Vittorio_Veneto_73_670", "[3|2]", 530).
enter("Vittorio_Veneto_73_670", "[202|34]", 530).
exit("Vittorio_Veneto_73_670", "[202|34]", 580).
enter("Vittorio_Veneto_73_670", "113", 580).
exit("Vittorio_Veneto_73_670", "113", 630).
enter("Vittorio_Veneto_73_670", "209", 630).
exit("Vittorio_Veneto_73_670", "209", 665).
origin("Vittorio_Veneto_10_535", "[181|18]").
enter("Vittorio_Veneto_10_535", "[181|18]", 0).
exit("Vittorio_Veneto_10_535", "[181|18]", 75).
enter("Vittorio_Veneto_10_535", "69", 75).
exit("Vittorio_Veneto_10_535", "69", 170).
enter("Vittorio_Veneto_10_535", "161", 170).
exit("Vittorio_Veneto_10_535", "161", 220).
enter("Vittorio_Veneto_10_535", "122", 220).
exit("Vittorio_Veneto_10_535", "122", 320).
enter("Vittorio_Veneto_10_535", "1b", 320).
exit("Vittorio_Veneto_10_535", "1b", 380).
enter("Vittorio_Veneto_10_535", "1", 380).
exit("Vittorio_Veneto_10_535", "1", 415).
enter("Vittorio_Veneto_10_535", "204a[0]", 415).
exit("Vittorio_Veneto_10_535", "204a[0]", 535).
enter("Vittorio_Veneto_10_535", "204b[0]", 535).
exit("Vittorio_Veneto_10_535", "204b[0]", 540).
enter("Vittorio_Veneto_10_535", "204[1][0]", 540).
exit("Vittorio_Veneto_10_535", "204[1][0]", 575).
enter("Vittorio_Veneto_10_535", "204[1][1]", 575).
exit("Vittorio_Veneto_10_535", "204[1][1]", 610).
origin("XXI_Aprile_113_829", "91").
enter("XXI_Aprile_113_829", "91", 0).
exit("XXI_Aprile_113_829", "91", 45).
enter("XXI_Aprile_113_829", "186", 45).
exit("XXI_Aprile_113_829", "186", 55).
enter("XXI_Aprile_113_829", "[109[0]|109[1][0]+20003|109[1][1]]", 55).
exit("XXI_Aprile_113_829", "[109[0]|109[1][0]+20003|109[1][1]]", 65).
enter("XXI_Aprile_113_829", "[116|46]", 65).
exit("XXI_Aprile_113_829", "[116|46]", 130).
enter("XXI_Aprile_113_829", "201", 130).
exit("XXI_Aprile_113_829", "201", 795).
enter("XXI_Aprile_113_829", "201c", 795).
exit("XXI_Aprile_113_829", "201c", 835).
enter("XXI_Aprile_113_829", "204a[0]", 835).
exit("XXI_Aprile_113_829", "204a[0]", 900).
enter("XXI_Aprile_113_829", "124", 900).
exit("XXI_Aprile_113_829", "124", 1345).
origin("Vittorio_Veneto_2_582", "[181|18]").
enter("Vittorio_Veneto_2_582", "[181|18]", 0).
exit("Vittorio_Veneto_2_582", "[181|18]", 75).
enter("Vittorio_Veneto_2_582", "[17|71]", 75).
exit("Vittorio_Veneto_2_582", "[17|71]", 130).
enter("Vittorio_Veneto_2_582", "67", 130).
exit("Vittorio_Veneto_2_582", "67", 140).
enter("Vittorio_Veneto_2_582", "[80|127]", 140).
exit("Vittorio_Veneto_2_582", "[80|127]", 160).
enter("Vittorio_Veneto_2_582", "(77[1][0])", 160).
exit("Vittorio_Veneto_2_582", "(77[1][0])", 175).
enter("Vittorio_Veneto_2_582", "77[1][1]", 175).
exit("Vittorio_Veneto_2_582", "77[1][1]", 235).
origin("Pepoli_11_1931", "204a[0]").
enter("Pepoli_11_1931", "204a[0]", 0).
exit("Pepoli_11_1931", "204a[0]", 120).
enter("Pepoli_11_1931", "124", 120).
exit("Pepoli_11_1931", "124", 165).
origin("Vittorio_Veneto_10_291", "1").
enter("Vittorio_Veneto_10_291", "1", 0).
exit("Vittorio_Veneto_10_291", "1", 35).
enter("Vittorio_Veneto_10_291", "204a[0]", 35).
exit("Vittorio_Veneto_10_291", "204a[0]", 155).
enter("Vittorio_Veneto_10_291", "204b[0]", 155).
exit("Vittorio_Veneto_10_291", "204b[0]", 160).
enter("Vittorio_Veneto_10_291", "204[1][0]", 160).
exit("Vittorio_Veneto_10_291", "204[1][0]", 195).
enter("Vittorio_Veneto_10_291", "204[1][1]", 195).
exit("Vittorio_Veneto_10_291", "204[1][1]", 230).
origin("XXI_Aprile_7_733", "[116|46]").
enter("XXI_Aprile_7_733", "[116|46]", 0).
exit("XXI_Aprile_7_733", "[116|46]", 65).
enter("XXI_Aprile_7_733", "113", 65).
exit("XXI_Aprile_7_733", "113", 135).
enter("XXI_Aprile_7_733", "209", 135).
exit("XXI_Aprile_7_733", "209", 170).
origin("Costa_91_273", "204a[0]").
enter("Costa_91_273", "204a[0]", 0).
exit("Costa_91_273", "204a[0]", 120).
enter("Costa_91_273", "204b[0]", 120).
exit("Costa_91_273", "204b[0]", 125).
enter("Costa_91_273", "54", 125).
exit("Costa_91_273", "54", 150).
origin("Pepoli_11_1839", "204a[0]").
enter("Pepoli_11_1839", "204a[0]", 0).
exit("Pepoli_11_1839", "204a[0]", 120).
enter("Pepoli_11_1839", "124", 120).
exit("Pepoli_11_1839", "124", 165).
origin("XXI_Aprile_7_915", "74").
enter("XXI_Aprile_7_915", "74", 0).
exit("XXI_Aprile_7_915", "74", 155).
enter("XXI_Aprile_7_915", "72[1]", 155).
exit("XXI_Aprile_7_915", "72[1]", 205).
enter("XXI_Aprile_7_915", "69", 205).
exit("XXI_Aprile_7_915", "69", 270).
enter("XXI_Aprile_7_915", "161", 270).
exit("XXI_Aprile_7_915", "161", 545).
enter("XXI_Aprile_7_915", "194", 545).
exit("XXI_Aprile_7_915", "194", 565).
enter("XXI_Aprile_7_915", "91", 565).
exit("XXI_Aprile_7_915", "91", 580).
enter("XXI_Aprile_7_915", "186", 580).
exit("XXI_Aprile_7_915", "186", 595).
enter("XXI_Aprile_7_915", "[109[0]|109[1][0]+20003|109[1][1]]", 595).
exit("XXI_Aprile_7_915", "[109[0]|109[1][0]+20003|109[1][1]]", 615).
enter("XXI_Aprile_7_915", "120", 615).
exit("XXI_Aprile_7_915", "120", 655).
enter("XXI_Aprile_7_915", "117", 655).
exit("XXI_Aprile_7_915", "117", 710).
enter("XXI_Aprile_7_915", "209", 710).
exit("XXI_Aprile_7_915", "209", 1035).
origin("XXI_Aprile_93_991", "(53cd|53[0])").
enter("XXI_Aprile_93_991", "(53cd|53[0])", 0).
exit("XXI_Aprile_93_991", "(53cd|53[0])", 25).
enter("XXI_Aprile_93_991", "78[1][1]", 25).
exit("XXI_Aprile_93_991", "78[1][1]", 35).
enter("XXI_Aprile_93_991", "[189[0]|189[1][0]+20000|189[1][1]]", 35).
exit("XXI_Aprile_93_991", "[189[0]|189[1][0]+20000|189[1][1]]", 90).
enter("XXI_Aprile_93_991", "191", 90).
exit("XXI_Aprile_93_991", "191", 200).
enter("XXI_Aprile_93_991", "69", 200).
exit("XXI_Aprile_93_991", "69", 295).
enter("XXI_Aprile_93_991", "161", 295).
exit("XXI_Aprile_93_991", "161", 315).
enter("XXI_Aprile_93_991", "122", 315).
exit("XXI_Aprile_93_991", "122", 425).
enter("XXI_Aprile_93_991", "1b", 425).
exit("XXI_Aprile_93_991", "1b", 495).
enter("XXI_Aprile_93_991", "1", 495).
exit("XXI_Aprile_93_991", "1", 1465).
enter("XXI_Aprile_93_991", "204a[0]", 1465).
exit("XXI_Aprile_93_991", "204a[0]", 1685).
enter("XXI_Aprile_93_991", "204b[0]", 1685).
exit("XXI_Aprile_93_991", "204b[0]", 1860).
enter("XXI_Aprile_93_991", "54", 1860).
exit("XXI_Aprile_93_991", "54", 1885).
origin("Pepoli_11_1514", "201").
enter("Pepoli_11_1514", "201", 0).
exit("Pepoli_11_1514", "201", 135).
enter("Pepoli_11_1514", "201c", 135).
exit("Pepoli_11_1514", "201c", 170).
enter("Pepoli_11_1514", "204a[0]", 170).
exit("Pepoli_11_1514", "204a[0]", 290).
enter("Pepoli_11_1514", "124", 290).
exit("Pepoli_11_1514", "124", 335).
origin("XXI_Aprile_8_744", "[116|46]").
enter("XXI_Aprile_8_744", "[116|46]", 0).
exit("XXI_Aprile_8_744", "[116|46]", 95).
enter("XXI_Aprile_8_744", "134", 95).
exit("XXI_Aprile_8_744", "134", 105).
origin("Pepoli_12_1482", "118").
enter("Pepoli_12_1482", "118", 0).
exit("Pepoli_12_1482", "118", 40).
enter("Pepoli_12_1482", "65", 40).
exit("Pepoli_12_1482", "65", 65).
enter("Pepoli_12_1482", "57[0]", 65).
exit("Pepoli_12_1482", "57[0]", 95).
enter("Pepoli_12_1482", "57[1]", 95).
exit("Pepoli_12_1482", "57[1]", 110).
enter("Pepoli_12_1482", "62", 110).
exit("Pepoli_12_1482", "62", 135).
enter("Pepoli_12_1482", "159", 135).
exit("Pepoli_12_1482", "159", 165).
enter("Pepoli_12_1482", "42", 165).
exit("Pepoli_12_1482", "42", 230).
enter("Pepoli_12_1482", "39", 230).
exit("Pepoli_12_1482", "39", 245).
enter("Pepoli_12_1482", "35", 245).
exit("Pepoli_12_1482", "35", 280).
enter("Pepoli_12_1482", "38", 280).
exit("Pepoli_12_1482", "38", 370).
enter("Pepoli_12_1482", "50", 370).
exit("Pepoli_12_1482", "50", 400).
enter("Pepoli_12_1482", "19", 400).
exit("Pepoli_12_1482", "19", 435).
enter("Pepoli_12_1482", "[22|59]", 435).
exit("Pepoli_12_1482", "[22|59]", 620).
enter("Pepoli_12_1482", "(53cd|53[0])", 620).
exit("Pepoli_12_1482", "(53cd|53[0])", 635).
enter("Pepoli_12_1482", "78[1][1]", 635).
exit("Pepoli_12_1482", "78[1][1]", 655).
enter("Pepoli_12_1482", "[189[0]|189[1][0]+20000|189[1][1]]", 655).
exit("Pepoli_12_1482", "[189[0]|189[1][0]+20000|189[1][1]]", 705).
enter("Pepoli_12_1482", "191", 705).
exit("Pepoli_12_1482", "191", 855).
enter("Pepoli_12_1482", "[17|71]", 855).
exit("Pepoli_12_1482", "[17|71]", 910).
enter("Pepoli_12_1482", "84", 910).
exit("Pepoli_12_1482", "84", 930).
enter("Pepoli_12_1482", "180", 930).
exit("Pepoli_12_1482", "180", 1080).
origin("Pepoli_11_2024", "204a[0]").
enter("Pepoli_11_2024", "204a[0]", 0).
exit("Pepoli_11_2024", "204a[0]", 120).
enter("Pepoli_11_2024", "124", 120).
exit("Pepoli_11_2024", "124", 165).
origin("Vittorio_Veneto_1_597", "224[1]").
enter("Vittorio_Veneto_1_597", "224[1]", 0).
exit("Vittorio_Veneto_1_597", "224[1]", 60).
enter("Vittorio_Veneto_1_597", "[181|18]", 60).
exit("Vittorio_Veneto_1_597", "[181|18]", 135).
enter("Vittorio_Veneto_1_597", "[17|71]", 135).
exit("Vittorio_Veneto_1_597", "[17|71]", 190).
enter("Vittorio_Veneto_1_597", "86", 190).
exit("Vittorio_Veneto_1_597", "86", 220).
origin("Vittorio_Veneto_73_618", "224[0]").
enter("Vittorio_Veneto_73_618", "224[0]", 0).
exit("Vittorio_Veneto_73_618", "224[0]", 140).
enter("Vittorio_Veneto_73_618", "224[1]", 140).
exit("Vittorio_Veneto_73_618", "224[1]", 200).
enter("Vittorio_Veneto_73_618", "[181|18]", 200).
exit("Vittorio_Veneto_73_618", "[181|18]", 275).
enter("Vittorio_Veneto_73_618", "69", 275).
exit("Vittorio_Veneto_73_618", "69", 370).
enter("Vittorio_Veneto_73_618", "161", 370).
exit("Vittorio_Veneto_73_618", "161", 395).
enter("Vittorio_Veneto_73_618", "122", 395).
exit("Vittorio_Veneto_73_618", "122", 450).
enter("Vittorio_Veneto_73_618", "[3|2]", 450).
exit("Vittorio_Veneto_73_618", "[3|2]", 485).
enter("Vittorio_Veneto_73_618", "[202|34]", 485).
exit("Vittorio_Veneto_73_618", "[202|34]", 535).
enter("Vittorio_Veneto_73_618", "113", 535).
exit("Vittorio_Veneto_73_618", "113", 575).
enter("Vittorio_Veneto_73_618", "209", 575).
exit("Vittorio_Veneto_73_618", "209", 610).
origin("Pepoli_3_1176", "35").
enter("Pepoli_3_1176", "35", 0).
exit("Pepoli_3_1176", "35", 55).
enter("Pepoli_3_1176", "38", 55).
exit("Pepoli_3_1176", "38", 115).
enter("Pepoli_3_1176", "15", 115).
exit("Pepoli_3_1176", "15", 190).
enter("Pepoli_3_1176", "14", 190).
exit("Pepoli_3_1176", "14", 230).
origin("Togliatti_10_581", "72[0]").
enter("Togliatti_10_581", "72[0]", 0).
exit("Togliatti_10_581", "72[0]", 75).
enter("Togliatti_10_581", "72[1]", 75).
exit("Togliatti_10_581", "72[1]", 115).
enter("Togliatti_10_581", "69", 115).
exit("Togliatti_10_581", "69", 210).
enter("Togliatti_10_581", "161", 210).
exit("Togliatti_10_581", "161", 260).
enter("Togliatti_10_581", "122", 260).
exit("Togliatti_10_581", "122", 315).
enter("Togliatti_10_581", "1b", 315).
exit("Togliatti_10_581", "1b", 375).
enter("Togliatti_10_581", "1", 375).
exit("Togliatti_10_581", "1", 410).
enter("Togliatti_10_581", "204a[0]", 410).
exit("Togliatti_10_581", "204a[0]", 530).
enter("Togliatti_10_581", "204b[0]", 530).
exit("Togliatti_10_581", "204b[0]", 535).
enter("Togliatti_10_581", "204[1][0]", 535).
exit("Togliatti_10_581", "204[1][0]", 570).
enter("Togliatti_10_581", "204[1][1]", 570).
exit("Togliatti_10_581", "204[1][1]", 605).
origin("XXI_Aprile_1_942", "191").
enter("XXI_Aprile_1_942", "191", 0).
exit("XXI_Aprile_1_942", "191", 45).
enter("XXI_Aprile_1_942", "[17|71]", 45).
exit("XXI_Aprile_1_942", "[17|71]", 100).
enter("XXI_Aprile_1_942", "86", 100).
exit("XXI_Aprile_1_942", "86", 130).
origin("XXI_Aprile_7_951", "74").
enter("XXI_Aprile_7_951", "74", 0).
exit("XXI_Aprile_7_951", "74", 115).
enter("XXI_Aprile_7_951", "72[1]", 115).
exit("XXI_Aprile_7_951", "72[1]", 205).
enter("XXI_Aprile_7_951", "69", 205).
exit("XXI_Aprile_7_951", "69", 250).
enter("XXI_Aprile_7_951", "161", 250).
exit("XXI_Aprile_7_951", "161", 270).
enter("XXI_Aprile_7_951", "122", 270).
exit("XXI_Aprile_7_951", "122", 305).
enter("XXI_Aprile_7_951", "[3|2]", 305).
exit("XXI_Aprile_7_951", "[3|2]", 345).
enter("XXI_Aprile_7_951", "[202|34]", 345).
exit("XXI_Aprile_7_951", "[202|34]", 395).
enter("XXI_Aprile_7_951", "113", 395).
exit("XXI_Aprile_7_951", "113", 650).
enter("XXI_Aprile_7_951", "209", 650).
exit("XXI_Aprile_7_951", "209", 755).
origin("Togliatti_9_728", "[181|18]").
enter("Togliatti_9_728", "[181|18]", 0).
exit("Togliatti_9_728", "[181|18]", 145).
enter("Togliatti_9_728", "69", 145).
exit("Togliatti_9_728", "69", 275).
enter("Togliatti_9_728", "161", 275).
exit("Togliatti_9_728", "161", 300).
enter("Togliatti_9_728", "122", 300).
exit("Togliatti_9_728", "122", 845).
enter("Togliatti_9_728", "1b", 845).
exit("Togliatti_9_728", "1b", 1525).
enter("Togliatti_9_728", "1", 1525).
exit("Togliatti_9_728", "1", 2350).
enter("Togliatti_9_728", "204a[0]", 2350).
exit("Togliatti_9_728", "204a[0]", 2455).
enter("Togliatti_9_728", "204b[0]", 2455).
exit("Togliatti_9_728", "204b[0]", 2510).
enter("Togliatti_9_728", "54", 2510).
exit("Togliatti_9_728", "54", 2820).
origin("XXI_Aprile_94_880", "119").
enter("XXI_Aprile_94_880", "119", 0).
exit("XXI_Aprile_94_880", "119", 15).
enter("XXI_Aprile_94_880", "[116|46]", 15).
exit("XXI_Aprile_94_880", "[116|46]", 65).
enter("XXI_Aprile_94_880", "201", 65).
exit("XXI_Aprile_94_880", "201", 135).
enter("XXI_Aprile_94_880", "201c", 135).
exit("XXI_Aprile_94_880", "201c", 260).
enter("XXI_Aprile_94_880", "204a[0]", 260).
exit("XXI_Aprile_94_880", "204a[0]", 475).
enter("XXI_Aprile_94_880", "204b[0]", 475).
exit("XXI_Aprile_94_880", "204b[0]", 840).
enter("XXI_Aprile_94_880", "54", 840).
exit("XXI_Aprile_94_880", "54", 875).
origin("Vittorio_Veneto_10_640", "224[0]").
enter("Vittorio_Veneto_10_640", "224[0]", 0).
exit("Vittorio_Veneto_10_640", "224[0]", 140).
enter("Vittorio_Veneto_10_640", "224[1]", 140).
exit("Vittorio_Veneto_10_640", "224[1]", 200).
enter("Vittorio_Veneto_10_640", "[181|18]", 200).
exit("Vittorio_Veneto_10_640", "[181|18]", 275).
enter("Vittorio_Veneto_10_640", "69", 275).
exit("Vittorio_Veneto_10_640", "69", 370).
enter("Vittorio_Veneto_10_640", "161", 370).
exit("Vittorio_Veneto_10_640", "161", 395).
enter("Vittorio_Veneto_10_640", "122", 395).
exit("Vittorio_Veneto_10_640", "122", 450).
enter("Vittorio_Veneto_10_640", "1b", 450).
exit("Vittorio_Veneto_10_640", "1b", 510).
enter("Vittorio_Veneto_10_640", "1", 510).
exit("Vittorio_Veneto_10_640", "1", 545).
enter("Vittorio_Veneto_10_640", "204a[0]", 545).
exit("Vittorio_Veneto_10_640", "204a[0]", 665).
enter("Vittorio_Veneto_10_640", "204b[0]", 665).
exit("Vittorio_Veneto_10_640", "204b[0]", 670).
enter("Vittorio_Veneto_10_640", "204[1][0]", 670).
exit("Vittorio_Veneto_10_640", "204[1][0]", 705).
enter("Vittorio_Veneto_10_640", "204[1][1]", 705).
exit("Vittorio_Veneto_10_640", "204[1][1]", 740).
origin("XXI_Aprile_8_864", "[116|46]").
enter("XXI_Aprile_8_864", "[116|46]", 0).
exit("XXI_Aprile_8_864", "[116|46]", 50).
enter("XXI_Aprile_8_864", "134", 50).
exit("XXI_Aprile_8_864", "134", 60).
origin("Pepoli_11_2098", "201").
enter("Pepoli_11_2098", "201", 0).
exit("Pepoli_11_2098", "201", 135).
enter("Pepoli_11_2098", "201c", 135).
exit("Pepoli_11_2098", "201c", 170).
enter("Pepoli_11_2098", "204a[0]", 170).
exit("Pepoli_11_2098", "204a[0]", 290).
enter("Pepoli_11_2098", "124", 290).
exit("Pepoli_11_2098", "124", 335).
origin("Costa_200_1357", "122").
enter("Costa_200_1357", "122", 0).
exit("Costa_200_1357", "122", 100).
enter("Costa_200_1357", "1b", 100).
exit("Costa_200_1357", "1b", 160).
enter("Costa_200_1357", "1", 160).
exit("Costa_200_1357", "1", 195).
enter("Costa_200_1357", "204a[0]", 195).
exit("Costa_200_1357", "204a[0]", 315).
enter("Costa_200_1357", "204b[0]", 315).
exit("Costa_200_1357", "204b[0]", 320).
enter("Costa_200_1357", "204[1][0]", 320).
exit("Costa_200_1357", "204[1][0]", 355).
enter("Costa_200_1357", "204[1][1]", 355).
exit("Costa_200_1357", "204[1][1]", 390).
origin("Togliatti_9_620", "85").
enter("Togliatti_9_620", "85", 0).
exit("Togliatti_9_620", "85", 110).
enter("Togliatti_9_620", "72[0]", 110).
exit("Togliatti_9_620", "72[0]", 185).
enter("Togliatti_9_620", "72[1]", 185).
exit("Togliatti_9_620", "72[1]", 225).
enter("Togliatti_9_620", "69", 225).
exit("Togliatti_9_620", "69", 320).
enter("Togliatti_9_620", "161", 320).
exit("Togliatti_9_620", "161", 370).
enter("Togliatti_9_620", "122", 370).
exit("Togliatti_9_620", "122", 425).
enter("Togliatti_9_620", "1b", 425).
exit("Togliatti_9_620", "1b", 485).
enter("Togliatti_9_620", "1", 485).
exit("Togliatti_9_620", "1", 520).
enter("Togliatti_9_620", "204a[0]", 520).
exit("Togliatti_9_620", "204a[0]", 640).
enter("Togliatti_9_620", "204b[0]", 640).
exit("Togliatti_9_620", "204b[0]", 645).
enter("Togliatti_9_620", "54", 645).
exit("Togliatti_9_620", "54", 670).
origin("Pepoli_11_1827", "43[1]").
enter("Pepoli_11_1827", "43[1]", 0).
exit("Pepoli_11_1827", "43[1]", 70).
enter("Pepoli_11_1827", "201", 70).
exit("Pepoli_11_1827", "201", 205).
enter("Pepoli_11_1827", "201c", 205).
exit("Pepoli_11_1827", "201c", 240).
enter("Pepoli_11_1827", "204a[0]", 240).
exit("Pepoli_11_1827", "204a[0]", 360).
enter("Pepoli_11_1827", "124", 360).
exit("Pepoli_11_1827", "124", 405).
origin("Vittorio_Veneto_10_413", "161").
enter("Vittorio_Veneto_10_413", "161", 0).
exit("Vittorio_Veneto_10_413", "161", 50).
enter("Vittorio_Veneto_10_413", "122", 50).
exit("Vittorio_Veneto_10_413", "122", 150).
enter("Vittorio_Veneto_10_413", "1b", 150).
exit("Vittorio_Veneto_10_413", "1b", 210).
enter("Vittorio_Veneto_10_413", "1", 210).
exit("Vittorio_Veneto_10_413", "1", 245).
enter("Vittorio_Veneto_10_413", "204a[0]", 245).
exit("Vittorio_Veneto_10_413", "204a[0]", 365).
enter("Vittorio_Veneto_10_413", "204b[0]", 365).
exit("Vittorio_Veneto_10_413", "204b[0]", 370).
enter("Vittorio_Veneto_10_413", "204[1][0]", 370).
exit("Vittorio_Veneto_10_413", "204[1][0]", 405).
enter("Vittorio_Veneto_10_413", "204[1][1]", 405).
exit("Vittorio_Veneto_10_413", "204[1][1]", 460).
origin("Vittorio_Veneto_1_647", "224[0]").
enter("Vittorio_Veneto_1_647", "224[0]", 0).
exit("Vittorio_Veneto_1_647", "224[0]", 140).
enter("Vittorio_Veneto_1_647", "224[1]", 140).
exit("Vittorio_Veneto_1_647", "224[1]", 200).
enter("Vittorio_Veneto_1_647", "[181|18]", 200).
exit("Vittorio_Veneto_1_647", "[181|18]", 275).
enter("Vittorio_Veneto_1_647", "[17|71]", 275).
exit("Vittorio_Veneto_1_647", "[17|71]", 330).
enter("Vittorio_Veneto_1_647", "86", 330).
exit("Vittorio_Veneto_1_647", "86", 360).
origin("Costa_200_256", "204a[0]").
enter("Costa_200_256", "204a[0]", 0).
exit("Costa_200_256", "204a[0]", 80).
enter("Costa_200_256", "204b[0]", 80).
exit("Costa_200_256", "204b[0]", 85).
enter("Costa_200_256", "204[1][0]", 85).
exit("Costa_200_256", "204[1][0]", 120).
enter("Costa_200_256", "204[1][1]", 120).
exit("Costa_200_256", "204[1][1]", 155).
origin("XXI_Aprile_7_742", "[116|46]").
enter("XXI_Aprile_7_742", "[116|46]", 0).
exit("XXI_Aprile_7_742", "[116|46]", 95).
enter("XXI_Aprile_7_742", "113", 95).
exit("XXI_Aprile_7_742", "113", 165).
enter("XXI_Aprile_7_742", "209", 165).
exit("XXI_Aprile_7_742", "209", 215).
origin("Costa_200_1305", "69").
enter("Costa_200_1305", "69", 0).
exit("Costa_200_1305", "69", 95).
enter("Costa_200_1305", "161", 95).
exit("Costa_200_1305", "161", 145).
enter("Costa_200_1305", "122", 145).
exit("Costa_200_1305", "122", 245).
enter("Costa_200_1305", "1b", 245).
exit("Costa_200_1305", "1b", 305).
enter("Costa_200_1305", "1", 305).
exit("Costa_200_1305", "1", 340).
enter("Costa_200_1305", "204a[0]", 340).
exit("Costa_200_1305", "204a[0]", 460).
enter("Costa_200_1305", "204b[0]", 460).
exit("Costa_200_1305", "204b[0]", 465).
enter("Costa_200_1305", "204[1][0]", 465).
exit("Costa_200_1305", "204[1][0]", 500).
enter("Costa_200_1305", "204[1][1]", 500).
exit("Costa_200_1305", "204[1][1]", 535).
origin("Togliatti_10_597", "72[0]").
enter("Togliatti_10_597", "72[0]", 0).
exit("Togliatti_10_597", "72[0]", 55).
enter("Togliatti_10_597", "72[1]", 55).
exit("Togliatti_10_597", "72[1]", 95).
enter("Togliatti_10_597", "69", 95).
exit("Togliatti_10_597", "69", 190).
enter("Togliatti_10_597", "161", 190).
exit("Togliatti_10_597", "161", 240).
enter("Togliatti_10_597", "122", 240).
exit("Togliatti_10_597", "122", 295).
enter("Togliatti_10_597", "1b", 295).
exit("Togliatti_10_597", "1b", 355).
enter("Togliatti_10_597", "1", 355).
exit("Togliatti_10_597", "1", 390).
enter("Togliatti_10_597", "204a[0]", 390).
exit("Togliatti_10_597", "204a[0]", 510).
enter("Togliatti_10_597", "204b[0]", 510).
exit("Togliatti_10_597", "204b[0]", 515).
enter("Togliatti_10_597", "204[1][0]", 515).
exit("Togliatti_10_597", "204[1][0]", 550).
enter("Togliatti_10_597", "204[1][1]", 550).
exit("Togliatti_10_597", "204[1][1]", 585).
origin("Pepoli_12_1531", "[210|43[0]]").
enter("Pepoli_12_1531", "[210|43[0]]", 0).
exit("Pepoli_12_1531", "[210|43[0]]", 80).
enter("Pepoli_12_1531", "118", 80).
exit("Pepoli_12_1531", "118", 140).
enter("Pepoli_12_1531", "65", 140).
exit("Pepoli_12_1531", "65", 185).
enter("Pepoli_12_1531", "57[0]", 185).
exit("Pepoli_12_1531", "57[0]", 230).
enter("Pepoli_12_1531", "57[1]", 230).
exit("Pepoli_12_1531", "57[1]", 245).
enter("Pepoli_12_1531", "62", 245).
exit("Pepoli_12_1531", "62", 295).
enter("Pepoli_12_1531", "159", 295).
exit("Pepoli_12_1531", "159", 400).
enter("Pepoli_12_1531", "42", 400).
exit("Pepoli_12_1531", "42", 420).
enter("Pepoli_12_1531", "39", 420).
exit("Pepoli_12_1531", "39", 440).
enter("Pepoli_12_1531", "35", 440).
exit("Pepoli_12_1531", "35", 495).
enter("Pepoli_12_1531", "38", 495).
exit("Pepoli_12_1531", "38", 555).
enter("Pepoli_12_1531", "50", 555).
exit("Pepoli_12_1531", "50", 570).
enter("Pepoli_12_1531", "19", 570).
exit("Pepoli_12_1531", "19", 605).
enter("Pepoli_12_1531", "[22|59]", 605).
exit("Pepoli_12_1531", "[22|59]", 625).
enter("Pepoli_12_1531", "(53cd|53[0]|53[1][0])", 625).
exit("Pepoli_12_1531", "(53cd|53[0]|53[1][0])", 645).
enter("Pepoli_12_1531", "79", 645).
exit("Pepoli_12_1531", "79", 665).
enter("Pepoli_12_1531", "[68|11]", 665).
exit("Pepoli_12_1531", "[68|11]", 710).
enter("Pepoli_12_1531", "84", 710).
exit("Pepoli_12_1531", "84", 730).
enter("Pepoli_12_1531", "180", 730).
exit("Pepoli_12_1531", "180", 755).
origin("XXI_Aprile_7_723", "[116|46]").
enter("XXI_Aprile_7_723", "[116|46]", 0).
exit("XXI_Aprile_7_723", "[116|46]", 65).
enter("XXI_Aprile_7_723", "113", 65).
exit("XXI_Aprile_7_723", "113", 135).
enter("XXI_Aprile_7_723", "209", 135).
exit("XXI_Aprile_7_723", "209", 170).
origin("XXI_Aprile_7_913", "[89[0]|20002+89[1][0]|89[1][1]]").
enter("XXI_Aprile_7_913", "[89[0]|20002+89[1][0]|89[1][1]]", 0).
exit("XXI_Aprile_7_913", "[89[0]|20002+89[1][0]|89[1][1]]", 25).
enter("XXI_Aprile_7_913", "91", 25).
exit("XXI_Aprile_7_913", "91", 45).
enter("XXI_Aprile_7_913", "186", 45).
exit("XXI_Aprile_7_913", "186", 50).
enter("XXI_Aprile_7_913", "[109[0]|109[1][0]+20003|109[1][1]]", 50).
exit("XXI_Aprile_7_913", "[109[0]|109[1][0]+20003|109[1][1]]", 85).
enter("XXI_Aprile_7_913", "120", 85).
exit("XXI_Aprile_7_913", "120", 105).
enter("XXI_Aprile_7_913", "117", 105).
exit("XXI_Aprile_7_913", "117", 175).
enter("XXI_Aprile_7_913", "209", 175).
exit("XXI_Aprile_7_913", "209", 930).
origin("Togliatti_9_482", "122").
enter("Togliatti_9_482", "122", 0).
exit("Togliatti_9_482", "122", 55).
enter("Togliatti_9_482", "1b", 55).
exit("Togliatti_9_482", "1b", 115).
enter("Togliatti_9_482", "1", 115).
exit("Togliatti_9_482", "1", 150).
enter("Togliatti_9_482", "204a[0]", 150).
exit("Togliatti_9_482", "204a[0]", 270).
enter("Togliatti_9_482", "204b[0]", 270).
exit("Togliatti_9_482", "204b[0]", 275).
enter("Togliatti_9_482", "54", 275).
exit("Togliatti_9_482", "54", 300).
origin("XXI_Aprile_12_988", "79").
enter("XXI_Aprile_12_988", "79", 0).
exit("XXI_Aprile_12_988", "79", 35).
enter("XXI_Aprile_12_988", "[68|11]", 35).
exit("XXI_Aprile_12_988", "[68|11]", 80).
enter("XXI_Aprile_12_988", "84", 80).
exit("XXI_Aprile_12_988", "84", 110).
enter("XXI_Aprile_12_988", "180", 110).
exit("XXI_Aprile_12_988", "180", 130).
origin("XXI_Aprile_102_625", "161").
enter("XXI_Aprile_102_625", "161", 0).
exit("XXI_Aprile_102_625", "161", 50).
enter("XXI_Aprile_102_625", "122", 50).
exit("XXI_Aprile_102_625", "122", 150).
enter("XXI_Aprile_102_625", "1b", 150).
exit("XXI_Aprile_102_625", "1b", 210).
enter("XXI_Aprile_102_625", "1", 210).
exit("XXI_Aprile_102_625", "1", 245).
enter("XXI_Aprile_102_625", "204a[0]", 245).
exit("XXI_Aprile_102_625", "204a[0]", 365).
enter("XXI_Aprile_102_625", "204b[0]", 365).
exit("XXI_Aprile_102_625", "204b[0]", 370).
enter("XXI_Aprile_102_625", "204[1][0]", 370).
exit("XXI_Aprile_102_625", "204[1][0]", 405).
enter("XXI_Aprile_102_625", "204[1][1]", 405).
exit("XXI_Aprile_102_625", "204[1][1]", 605).
origin("XXI_Aprile_103_370", "122").
enter("XXI_Aprile_103_370", "122", 0).
exit("XXI_Aprile_103_370", "122", 55).
enter("XXI_Aprile_103_370", "1b", 55).
exit("XXI_Aprile_103_370", "1b", 115).
enter("XXI_Aprile_103_370", "1", 115).
exit("XXI_Aprile_103_370", "1", 150).
enter("XXI_Aprile_103_370", "204a[0]", 150).
exit("XXI_Aprile_103_370", "204a[0]", 270).
enter("XXI_Aprile_103_370", "204b[0]", 270).
exit("XXI_Aprile_103_370", "204b[0]", 275).
enter("XXI_Aprile_103_370", "204[1][0]", 275).
exit("XXI_Aprile_103_370", "204[1][0]", 310).
enter("XXI_Aprile_103_370", "204[1][1]", 310).
exit("XXI_Aprile_103_370", "204[1][1]", 345).
origin("Togliatti_10_682", "201").
enter("Togliatti_10_682", "201", 0).
exit("Togliatti_10_682", "201", 320).
enter("Togliatti_10_682", "201c", 320).
exit("Togliatti_10_682", "201c", 630).
enter("Togliatti_10_682", "204a[0]", 630).
exit("Togliatti_10_682", "204a[0]", 700).
enter("Togliatti_10_682", "204b[0]", 700).
exit("Togliatti_10_682", "204b[0]", 1345).
enter("Togliatti_10_682", "204[1][0]", 1345).
exit("Togliatti_10_682", "204[1][0]", 1380).
enter("Togliatti_10_682", "204[1][1]", 1380).
exit("Togliatti_10_682", "204[1][1]", 1990).
origin("Pepoli_11_1979", "201").
enter("Pepoli_11_1979", "201", 0).
exit("Pepoli_11_1979", "201", 135).
enter("Pepoli_11_1979", "201c", 135).
exit("Pepoli_11_1979", "201c", 170).
enter("Pepoli_11_1979", "204a[0]", 170).
exit("Pepoli_11_1979", "204a[0]", 290).
enter("Pepoli_11_1979", "124", 290).
exit("Pepoli_11_1979", "124", 335).
origin("Vittorio_Veneto_1_642", "224[0]").
enter("Vittorio_Veneto_1_642", "224[0]", 0).
exit("Vittorio_Veneto_1_642", "224[0]", 140).
enter("Vittorio_Veneto_1_642", "224[1]", 140).
exit("Vittorio_Veneto_1_642", "224[1]", 200).
enter("Vittorio_Veneto_1_642", "[181|18]", 200).
exit("Vittorio_Veneto_1_642", "[181|18]", 275).
enter("Vittorio_Veneto_1_642", "[17|71]", 275).
exit("Vittorio_Veneto_1_642", "[17|71]", 330).
enter("Vittorio_Veneto_1_642", "86", 330).
exit("Vittorio_Veneto_1_642", "86", 360).
origin("XXI_Aprile_102_197", "204a[0]").
enter("XXI_Aprile_102_197", "204a[0]", 0).
exit("XXI_Aprile_102_197", "204a[0]", 120).
enter("XXI_Aprile_102_197", "204b[0]", 120).
exit("XXI_Aprile_102_197", "204b[0]", 125).
enter("XXI_Aprile_102_197", "204[1][0]", 125).
exit("XXI_Aprile_102_197", "204[1][0]", 160).
enter("XXI_Aprile_102_197", "204[1][1]", 160).
exit("XXI_Aprile_102_197", "204[1][1]", 195).
origin("XXI_Aprile_7_979", "[189[0]|189[1][0]+20000|189[1][1]]").
enter("XXI_Aprile_7_979", "[189[0]|189[1][0]+20000|189[1][1]]", 0).
exit("XXI_Aprile_7_979", "[189[0]|189[1][0]+20000|189[1][1]]", 125).
enter("XXI_Aprile_7_979", "188", 125).
exit("XXI_Aprile_7_979", "188", 195).
enter("XXI_Aprile_7_979", "[87[0]|20001+87[1][0]|87[1][1]]", 195).
exit("XXI_Aprile_7_979", "[87[0]|20001+87[1][0]|87[1][1]]", 215).
enter("XXI_Aprile_7_979", "m90", 215).
exit("XXI_Aprile_7_979", "m90", 230).
enter("XXI_Aprile_7_979", "[89[0]|20002+89[1][0]|89[1][1]]", 230).
exit("XXI_Aprile_7_979", "[89[0]|20002+89[1][0]|89[1][1]]", 270).
enter("XXI_Aprile_7_979", "91", 270).
exit("XXI_Aprile_7_979", "91", 290).
enter("XXI_Aprile_7_979", "186", 290).
exit("XXI_Aprile_7_979", "186", 320).
enter("XXI_Aprile_7_979", "[109[0]|109[1][0]+20003|109[1][1]]", 320).
exit("XXI_Aprile_7_979", "[109[0]|109[1][0]+20003|109[1][1]]", 355).
enter("XXI_Aprile_7_979", "[116|46]", 355).
exit("XXI_Aprile_7_979", "[116|46]", 420).
enter("XXI_Aprile_7_979", "113", 420).
exit("XXI_Aprile_7_979", "113", 460).
enter("XXI_Aprile_7_979", "209", 460).
exit("XXI_Aprile_7_979", "209", 495).
origin("Pepoli_3_1132", "35").
enter("Pepoli_3_1132", "35", 0).
exit("Pepoli_3_1132", "35", 55).
enter("Pepoli_3_1132", "38", 55).
exit("Pepoli_3_1132", "38", 115).
enter("Pepoli_3_1132", "15", 115).
exit("Pepoli_3_1132", "15", 190).
enter("Pepoli_3_1132", "14", 190).
exit("Pepoli_3_1132", "14", 230).
origin("Togliatti_10_378", "204a[0]").
enter("Togliatti_10_378", "204a[0]", 0).
exit("Togliatti_10_378", "204a[0]", 120).
enter("Togliatti_10_378", "204b[0]", 120).
exit("Togliatti_10_378", "204b[0]", 125).
enter("Togliatti_10_378", "204[1][0]", 125).
exit("Togliatti_10_378", "204[1][0]", 160).
enter("Togliatti_10_378", "204[1][1]", 160).
exit("Togliatti_10_378", "204[1][1]", 195).
origin("Pepoli_11_2050", "201").
enter("Pepoli_11_2050", "201", 0).
exit("Pepoli_11_2050", "201", 135).
enter("Pepoli_11_2050", "201c", 135).
exit("Pepoli_11_2050", "201c", 170).
enter("Pepoli_11_2050", "204a[0]", 170).
exit("Pepoli_11_2050", "204a[0]", 290).
enter("Pepoli_11_2050", "124", 290).
exit("Pepoli_11_2050", "124", 335).
origin("Vittorio_Veneto_1_655", "224[0]").
enter("Vittorio_Veneto_1_655", "224[0]", 0).
exit("Vittorio_Veneto_1_655", "224[0]", 140).
enter("Vittorio_Veneto_1_655", "224[1]", 140).
exit("Vittorio_Veneto_1_655", "224[1]", 200).
enter("Vittorio_Veneto_1_655", "[181|18]", 200).
exit("Vittorio_Veneto_1_655", "[181|18]", 275).
enter("Vittorio_Veneto_1_655", "[17|71]", 275).
exit("Vittorio_Veneto_1_655", "[17|71]", 330).
enter("Vittorio_Veneto_1_655", "86", 330).
exit("Vittorio_Veneto_1_655", "86", 360).
origin("Costa_200_211", "122").
enter("Costa_200_211", "122", 0).
exit("Costa_200_211", "122", 20).
enter("Costa_200_211", "1b", 20).
exit("Costa_200_211", "1b", 80).
enter("Costa_200_211", "1", 80).
exit("Costa_200_211", "1", 115).
enter("Costa_200_211", "204a[0]", 115).
exit("Costa_200_211", "204a[0]", 235).
enter("Costa_200_211", "204b[0]", 235).
exit("Costa_200_211", "204b[0]", 240).
enter("Costa_200_211", "204[1][0]", 240).
exit("Costa_200_211", "204[1][0]", 275).
enter("Costa_200_211", "204[1][1]", 275).
exit("Costa_200_211", "204[1][1]", 310).
origin("Costa_91_1261", "69").
enter("Costa_91_1261", "69", 0).
exit("Costa_91_1261", "69", 95).
enter("Costa_91_1261", "161", 95).
exit("Costa_91_1261", "161", 145).
enter("Costa_91_1261", "122", 145).
exit("Costa_91_1261", "122", 245).
enter("Costa_91_1261", "1b", 245).
exit("Costa_91_1261", "1b", 305).
enter("Costa_91_1261", "1", 305).
exit("Costa_91_1261", "1", 340).
enter("Costa_91_1261", "204a[0]", 340).
exit("Costa_91_1261", "204a[0]", 460).
enter("Costa_91_1261", "204b[0]", 460).
exit("Costa_91_1261", "204b[0]", 465).
enter("Costa_91_1261", "54", 465).
exit("Costa_91_1261", "54", 490).
origin("XXI_Aprile_93_287", "122").
enter("XXI_Aprile_93_287", "122", 0).
exit("XXI_Aprile_93_287", "122", 55).
enter("XXI_Aprile_93_287", "1b", 55).
exit("XXI_Aprile_93_287", "1b", 115).
enter("XXI_Aprile_93_287", "1", 115).
exit("XXI_Aprile_93_287", "1", 150).
enter("XXI_Aprile_93_287", "204a[0]", 150).
exit("XXI_Aprile_93_287", "204a[0]", 270).
enter("XXI_Aprile_93_287", "204b[0]", 270).
exit("XXI_Aprile_93_287", "204b[0]", 275).
enter("XXI_Aprile_93_287", "54", 275).
exit("XXI_Aprile_93_287", "54", 300).
origin("Vittorio_Veneto_10_499", "69").
enter("Vittorio_Veneto_10_499", "69", 0).
exit("Vittorio_Veneto_10_499", "69", 95).
enter("Vittorio_Veneto_10_499", "161", 95).
exit("Vittorio_Veneto_10_499", "161", 145).
enter("Vittorio_Veneto_10_499", "122", 145).
exit("Vittorio_Veneto_10_499", "122", 245).
enter("Vittorio_Veneto_10_499", "1b", 245).
exit("Vittorio_Veneto_10_499", "1b", 305).
enter("Vittorio_Veneto_10_499", "1", 305).
exit("Vittorio_Veneto_10_499", "1", 340).
enter("Vittorio_Veneto_10_499", "204a[0]", 340).
exit("Vittorio_Veneto_10_499", "204a[0]", 460).
enter("Vittorio_Veneto_10_499", "204b[0]", 460).
exit("Vittorio_Veneto_10_499", "204b[0]", 465).
enter("Vittorio_Veneto_10_499", "204[1][0]", 465).
exit("Vittorio_Veneto_10_499", "204[1][0]", 500).
enter("Vittorio_Veneto_10_499", "204[1][1]", 500).
exit("Vittorio_Veneto_10_499", "204[1][1]", 700).
origin("Togliatti_10_601", "72[0]").
enter("Togliatti_10_601", "72[0]", 0).
exit("Togliatti_10_601", "72[0]", 75).
enter("Togliatti_10_601", "72[1]", 75).
exit("Togliatti_10_601", "72[1]", 115).
enter("Togliatti_10_601", "69", 115).
exit("Togliatti_10_601", "69", 210).
enter("Togliatti_10_601", "161", 210).
exit("Togliatti_10_601", "161", 260).
enter("Togliatti_10_601", "122", 260).
exit("Togliatti_10_601", "122", 315).
enter("Togliatti_10_601", "1b", 315).
exit("Togliatti_10_601", "1b", 375).
enter("Togliatti_10_601", "1", 375).
exit("Togliatti_10_601", "1", 410).
enter("Togliatti_10_601", "204a[0]", 410).
exit("Togliatti_10_601", "204a[0]", 530).
enter("Togliatti_10_601", "204b[0]", 530).
exit("Togliatti_10_601", "204b[0]", 535).
enter("Togliatti_10_601", "204[1][0]", 535).
exit("Togliatti_10_601", "204[1][0]", 570).
enter("Togliatti_10_601", "204[1][1]", 570).
exit("Togliatti_10_601", "204[1][1]", 605).
origin("Pepoli_11_1897", "204a[0]").
enter("Pepoli_11_1897", "204a[0]", 0).
exit("Pepoli_11_1897", "204a[0]", 120).
enter("Pepoli_11_1897", "124", 120).
exit("Pepoli_11_1897", "124", 165).
origin("Costa_50_1370", "[200|60]").
enter("Costa_50_1370", "[200|60]", 0).
exit("Costa_50_1370", "[200|60]", 135).
origin("Pepoli_11_2079", "201").
enter("Pepoli_11_2079", "201", 0).
exit("Pepoli_11_2079", "201", 135).
enter("Pepoli_11_2079", "201c", 135).
exit("Pepoli_11_2079", "201c", 170).
enter("Pepoli_11_2079", "204a[0]", 170).
exit("Pepoli_11_2079", "204a[0]", 290).
enter("Pepoli_11_2079", "124", 290).
exit("Pepoli_11_2079", "124", 335).
origin("Pepoli_12_961", "19").
enter("Pepoli_12_961", "19", 0).
exit("Pepoli_12_961", "19", 35).
enter("Pepoli_12_961", "[22|59]", 35).
exit("Pepoli_12_961", "[22|59]", 105).
enter("Pepoli_12_961", "(53cd|53[0]|53[1][0])", 105).
exit("Pepoli_12_961", "(53cd|53[0]|53[1][0])", 125).
enter("Pepoli_12_961", "79", 125).
exit("Pepoli_12_961", "79", 195).
enter("Pepoli_12_961", "[68|11]", 195).
exit("Pepoli_12_961", "[68|11]", 275).
enter("Pepoli_12_961", "84", 275).
exit("Pepoli_12_961", "84", 295).
enter("Pepoli_12_961", "180", 295).
exit("Pepoli_12_961", "180", 390).
origin("Pepoli_3_1265", "159").
enter("Pepoli_3_1265", "159", 0).
exit("Pepoli_3_1265", "159", 160).
enter("Pepoli_3_1265", "42", 160).
exit("Pepoli_3_1265", "42", 210).
enter("Pepoli_3_1265", "39", 210).
exit("Pepoli_3_1265", "39", 240).
enter("Pepoli_3_1265", "35", 240).
exit("Pepoli_3_1265", "35", 300).
enter("Pepoli_3_1265", "38", 300).
exit("Pepoli_3_1265", "38", 315).
enter("Pepoli_3_1265", "33", 315).
exit("Pepoli_3_1265", "33", 375).
enter("Pepoli_3_1265", "10", 375).
exit("Pepoli_3_1265", "10", 955).
origin("Costa_200_411", "1b").
enter("Costa_200_411", "1b", 0).
exit("Costa_200_411", "1b", 60).
enter("Costa_200_411", "1", 60).
exit("Costa_200_411", "1", 95).
enter("Costa_200_411", "204a[0]", 95).
exit("Costa_200_411", "204a[0]", 215).
enter("Costa_200_411", "204b[0]", 215).
exit("Costa_200_411", "204b[0]", 220).
enter("Costa_200_411", "204[1][0]", 220).
exit("Costa_200_411", "204[1][0]", 255).
enter("Costa_200_411", "204[1][1]", 255).
exit("Costa_200_411", "204[1][1]", 290).
origin("Vittorio_Veneto_10_404", "161").
enter("Vittorio_Veneto_10_404", "161", 0).
exit("Vittorio_Veneto_10_404", "161", 50).
enter("Vittorio_Veneto_10_404", "122", 50).
exit("Vittorio_Veneto_10_404", "122", 150).
enter("Vittorio_Veneto_10_404", "1b", 150).
exit("Vittorio_Veneto_10_404", "1b", 210).
enter("Vittorio_Veneto_10_404", "1", 210).
exit("Vittorio_Veneto_10_404", "1", 245).
enter("Vittorio_Veneto_10_404", "204a[0]", 245).
exit("Vittorio_Veneto_10_404", "204a[0]", 365).
enter("Vittorio_Veneto_10_404", "204b[0]", 365).
exit("Vittorio_Veneto_10_404", "204b[0]", 370).
enter("Vittorio_Veneto_10_404", "204[1][0]", 370).
exit("Vittorio_Veneto_10_404", "204[1][0]", 405).
enter("Vittorio_Veneto_10_404", "204[1][1]", 405).
exit("Vittorio_Veneto_10_404", "204[1][1]", 460).
origin("Vittorio_Veneto_2_585", "[181|18]").
enter("Vittorio_Veneto_2_585", "[181|18]", 0).
exit("Vittorio_Veneto_2_585", "[181|18]", 75).
enter("Vittorio_Veneto_2_585", "[17|71]", 75).
exit("Vittorio_Veneto_2_585", "[17|71]", 130).
enter("Vittorio_Veneto_2_585", "67", 130).
exit("Vittorio_Veneto_2_585", "67", 140).
enter("Vittorio_Veneto_2_585", "[80|127]", 140).
exit("Vittorio_Veneto_2_585", "[80|127]", 160).
enter("Vittorio_Veneto_2_585", "(77[1][0])", 160).
exit("Vittorio_Veneto_2_585", "(77[1][0])", 175).
enter("Vittorio_Veneto_2_585", "77[1][1]", 175).
exit("Vittorio_Veneto_2_585", "77[1][1]", 215).
origin("Togliatti_10_577", "72[0]").
enter("Togliatti_10_577", "72[0]", 0).
exit("Togliatti_10_577", "72[0]", 55).
enter("Togliatti_10_577", "72[1]", 55).
exit("Togliatti_10_577", "72[1]", 95).
enter("Togliatti_10_577", "69", 95).
exit("Togliatti_10_577", "69", 190).
enter("Togliatti_10_577", "161", 190).
exit("Togliatti_10_577", "161", 240).
enter("Togliatti_10_577", "122", 240).
exit("Togliatti_10_577", "122", 295).
enter("Togliatti_10_577", "1b", 295).
exit("Togliatti_10_577", "1b", 355).
enter("Togliatti_10_577", "1", 355).
exit("Togliatti_10_577", "1", 390).
enter("Togliatti_10_577", "204a[0]", 390).
exit("Togliatti_10_577", "204a[0]", 510).
enter("Togliatti_10_577", "204b[0]", 510).
exit("Togliatti_10_577", "204b[0]", 515).
enter("Togliatti_10_577", "204[1][0]", 515).
exit("Togliatti_10_577", "204[1][0]", 550).
enter("Togliatti_10_577", "204[1][1]", 550).
exit("Togliatti_10_577", "204[1][1]", 585).
origin("Togliatti_10_595", "72[0]").
enter("Togliatti_10_595", "72[0]", 0).
exit("Togliatti_10_595", "72[0]", 55).
enter("Togliatti_10_595", "72[1]", 55).
exit("Togliatti_10_595", "72[1]", 95).
enter("Togliatti_10_595", "69", 95).
exit("Togliatti_10_595", "69", 190).
enter("Togliatti_10_595", "161", 190).
exit("Togliatti_10_595", "161", 240).
enter("Togliatti_10_595", "122", 240).
exit("Togliatti_10_595", "122", 295).
enter("Togliatti_10_595", "1b", 295).
exit("Togliatti_10_595", "1b", 355).
enter("Togliatti_10_595", "1", 355).
exit("Togliatti_10_595", "1", 390).
enter("Togliatti_10_595", "204a[0]", 390).
exit("Togliatti_10_595", "204a[0]", 510).
enter("Togliatti_10_595", "204b[0]", 510).
exit("Togliatti_10_595", "204b[0]", 515).
enter("Togliatti_10_595", "204[1][0]", 515).
exit("Togliatti_10_595", "204[1][0]", 550).
enter("Togliatti_10_595", "204[1][1]", 550).
exit("Togliatti_10_595", "204[1][1]", 585).
origin("XXI_Aprile_94_841", "69").
enter("XXI_Aprile_94_841", "69", 0).
exit("XXI_Aprile_94_841", "69", 85).
enter("XXI_Aprile_94_841", "161", 85).
exit("XXI_Aprile_94_841", "161", 145).
enter("XXI_Aprile_94_841", "122", 145).
exit("XXI_Aprile_94_841", "122", 1550).
enter("XXI_Aprile_94_841", "1b", 1550).
exit("XXI_Aprile_94_841", "1b", 1595).
enter("XXI_Aprile_94_841", "1", 1595).
exit("XXI_Aprile_94_841", "1", 2405).
enter("XXI_Aprile_94_841", "204a[0]", 2405).
exit("XXI_Aprile_94_841", "204a[0]", 2535).
enter("XXI_Aprile_94_841", "204b[0]", 2535).
exit("XXI_Aprile_94_841", "204b[0]", 2550).
enter("XXI_Aprile_94_841", "54", 2550).
exit("XXI_Aprile_94_841", "54", 2620).
origin("Pepoli_11_1313", "204a[0]").
enter("Pepoli_11_1313", "204a[0]", 0).
exit("Pepoli_11_1313", "204a[0]", 120).
enter("Pepoli_11_1313", "124", 120).
exit("Pepoli_11_1313", "124", 165).
origin("Pepoli_11_1616", "204a[0]").
enter("Pepoli_11_1616", "204a[0]", 0).
exit("Pepoli_11_1616", "204a[0]", 120).
enter("Pepoli_11_1616", "124", 120).
exit("Pepoli_11_1616", "124", 165).
origin("Pepoli_11_1829", "204a[0]").
enter("Pepoli_11_1829", "204a[0]", 0).
exit("Pepoli_11_1829", "204a[0]", 120).
enter("Pepoli_11_1829", "124", 120).
exit("Pepoli_11_1829", "124", 165).
origin("Pepoli_11_1861", "201").
enter("Pepoli_11_1861", "201", 0).
exit("Pepoli_11_1861", "201", 135).
enter("Pepoli_11_1861", "201c", 135).
exit("Pepoli_11_1861", "201c", 170).
enter("Pepoli_11_1861", "204a[0]", 170).
exit("Pepoli_11_1861", "204a[0]", 290).
enter("Pepoli_11_1861", "124", 290).
exit("Pepoli_11_1861", "124", 335).
origin("Pepoli_12_1649", "[210|43[0]]").
enter("Pepoli_12_1649", "[210|43[0]]", 0).
exit("Pepoli_12_1649", "[210|43[0]]", 65).
enter("Pepoli_12_1649", "118", 65).
exit("Pepoli_12_1649", "118", 185).
enter("Pepoli_12_1649", "65", 185).
exit("Pepoli_12_1649", "65", 260).
enter("Pepoli_12_1649", "57[0]", 260).
exit("Pepoli_12_1649", "57[0]", 325).
enter("Pepoli_12_1649", "57[1]", 325).
exit("Pepoli_12_1649", "57[1]", 345).
enter("Pepoli_12_1649", "62", 345).
exit("Pepoli_12_1649", "62", 385).
enter("Pepoli_12_1649", "159", 385).
exit("Pepoli_12_1649", "159", 415).
enter("Pepoli_12_1649", "42", 415).
exit("Pepoli_12_1649", "42", 430).
enter("Pepoli_12_1649", "39", 430).
exit("Pepoli_12_1649", "39", 460).
enter("Pepoli_12_1649", "35", 460).
exit("Pepoli_12_1649", "35", 515).
enter("Pepoli_12_1649", "38", 515).
exit("Pepoli_12_1649", "38", 575).
enter("Pepoli_12_1649", "50", 575).
exit("Pepoli_12_1649", "50", 600).
enter("Pepoli_12_1649", "19", 600).
exit("Pepoli_12_1649", "19", 640).
enter("Pepoli_12_1649", "[22|59]", 640).
exit("Pepoli_12_1649", "[22|59]", 660).
enter("Pepoli_12_1649", "(53cd|53[0]|53[1][0])", 660).
exit("Pepoli_12_1649", "(53cd|53[0]|53[1][0])", 675).
enter("Pepoli_12_1649", "79", 675).
exit("Pepoli_12_1649", "79", 695).
enter("Pepoli_12_1649", "[68|11]", 695).
exit("Pepoli_12_1649", "[68|11]", 735).
enter("Pepoli_12_1649", "84", 735).
exit("Pepoli_12_1649", "84", 755).
enter("Pepoli_12_1649", "180", 755).
exit("Pepoli_12_1649", "180", 1010).
origin("Togliatti_9_642", "85").
enter("Togliatti_9_642", "85", 0).
exit("Togliatti_9_642", "85", 70).
enter("Togliatti_9_642", "72[0]", 70).
exit("Togliatti_9_642", "72[0]", 145).
enter("Togliatti_9_642", "72[1]", 145).
exit("Togliatti_9_642", "72[1]", 185).
enter("Togliatti_9_642", "69", 185).
exit("Togliatti_9_642", "69", 280).
enter("Togliatti_9_642", "161", 280).
exit("Togliatti_9_642", "161", 330).
enter("Togliatti_9_642", "122", 330).
exit("Togliatti_9_642", "122", 430).
enter("Togliatti_9_642", "1b", 430).
exit("Togliatti_9_642", "1b", 490).
enter("Togliatti_9_642", "1", 490).
exit("Togliatti_9_642", "1", 525).
enter("Togliatti_9_642", "204a[0]", 525).
exit("Togliatti_9_642", "204a[0]", 645).
enter("Togliatti_9_642", "204b[0]", 645).
exit("Togliatti_9_642", "204b[0]", 650).
enter("Togliatti_9_642", "54", 650).
exit("Togliatti_9_642", "54", 675).
origin("XXI_Aprile_7_920", "74").
enter("XXI_Aprile_7_920", "74", 0).
exit("XXI_Aprile_7_920", "74", 205).
enter("XXI_Aprile_7_920", "72[1]", 205).
exit("XXI_Aprile_7_920", "72[1]", 265).
enter("XXI_Aprile_7_920", "69", 265).
exit("XXI_Aprile_7_920", "69", 315).
enter("XXI_Aprile_7_920", "161", 315).
exit("XXI_Aprile_7_920", "161", 545).
enter("XXI_Aprile_7_920", "194", 545).
exit("XXI_Aprile_7_920", "194", 565).
enter("XXI_Aprile_7_920", "91", 565).
exit("XXI_Aprile_7_920", "91", 580).
enter("XXI_Aprile_7_920", "186", 580).
exit("XXI_Aprile_7_920", "186", 595).
enter("XXI_Aprile_7_920", "[109[0]|109[1][0]+20003|109[1][1]]", 595).
exit("XXI_Aprile_7_920", "[109[0]|109[1][0]+20003|109[1][1]]", 615).
enter("XXI_Aprile_7_920", "120", 615).
exit("XXI_Aprile_7_920", "120", 655).
enter("XXI_Aprile_7_920", "117", 655).
exit("XXI_Aprile_7_920", "117", 710).
enter("XXI_Aprile_7_920", "209", 710).
exit("XXI_Aprile_7_920", "209", 995).
origin("Pepoli_3_1580", "[210|43[0]]").
enter("Pepoli_3_1580", "[210|43[0]]", 0).
exit("Pepoli_3_1580", "[210|43[0]]", 185).
enter("Pepoli_3_1580", "118", 185).
exit("Pepoli_3_1580", "118", 235).
enter("Pepoli_3_1580", "65", 235).
exit("Pepoli_3_1580", "65", 295).
enter("Pepoli_3_1580", "57[0]", 295).
exit("Pepoli_3_1580", "57[0]", 315).
enter("Pepoli_3_1580", "57[1]", 315).
exit("Pepoli_3_1580", "57[1]", 330).
enter("Pepoli_3_1580", "62", 330).
exit("Pepoli_3_1580", "62", 420).
enter("Pepoli_3_1580", "159", 420).
exit("Pepoli_3_1580", "159", 510).
enter("Pepoli_3_1580", "42", 510).
exit("Pepoli_3_1580", "42", 530).
enter("Pepoli_3_1580", "39", 530).
exit("Pepoli_3_1580", "39", 540).
enter("Pepoli_3_1580", "35", 540).
exit("Pepoli_3_1580", "35", 575).
enter("Pepoli_3_1580", "38", 575).
exit("Pepoli_3_1580", "38", 610).
enter("Pepoli_3_1580", "33", 610).
exit("Pepoli_3_1580", "33", 655).
enter("Pepoli_3_1580", "10", 655).
exit("Pepoli_3_1580", "10", 665).
origin("XXI_Aprile_7_972", "58[0]").
enter("XXI_Aprile_7_972", "58[0]", 0).
exit("XXI_Aprile_7_972", "58[0]", 5).
enter("XXI_Aprile_7_972", "58[1]", 5).
exit("XXI_Aprile_7_972", "58[1]", 20).
enter("XXI_Aprile_7_972", "66", 20).
exit("XXI_Aprile_7_972", "66", 30).
enter("XXI_Aprile_7_972", "117", 30).
exit("XXI_Aprile_7_972", "117", 80).
enter("XXI_Aprile_7_972", "209", 80).
exit("XXI_Aprile_7_972", "209", 115).
origin("XXI_Aprile_94_498", "204a[0]").
enter("XXI_Aprile_94_498", "204a[0]", 0).
exit("XXI_Aprile_94_498", "204a[0]", 120).
enter("XXI_Aprile_94_498", "204b[0]", 120).
exit("XXI_Aprile_94_498", "204b[0]", 125).
enter("XXI_Aprile_94_498", "54", 125).
exit("XXI_Aprile_94_498", "54", 150).
origin("Togliatti_10_727", "[181|18]").
enter("Togliatti_10_727", "[181|18]", 0).
exit("Togliatti_10_727", "[181|18]", 100).
enter("Togliatti_10_727", "69", 100).
exit("Togliatti_10_727", "69", 250).
enter("Togliatti_10_727", "161", 250).
exit("Togliatti_10_727", "161", 275).
enter("Togliatti_10_727", "122", 275).
exit("Togliatti_10_727", "122", 515).
enter("Togliatti_10_727", "1b", 515).
exit("Togliatti_10_727", "1b", 1500).
enter("Togliatti_10_727", "1", 1500).
exit("Togliatti_10_727", "1", 1555).
enter("Togliatti_10_727", "204a[0]", 1555).
exit("Togliatti_10_727", "204a[0]", 2430).
enter("Togliatti_10_727", "204b[0]", 2430).
exit("Togliatti_10_727", "204b[0]", 2480).
enter("Togliatti_10_727", "204[1][0]", 2480).
exit("Togliatti_10_727", "204[1][0]", 2520).
enter("Togliatti_10_727", "204[1][1]", 2520).
exit("Togliatti_10_727", "204[1][1]", 2880).
origin("Pepoli_3_1601", "[210|43[0]]").
enter("Pepoli_3_1601", "[210|43[0]]", 0).
exit("Pepoli_3_1601", "[210|43[0]]", 125).
enter("Pepoli_3_1601", "118", 125).
exit("Pepoli_3_1601", "118", 185).
enter("Pepoli_3_1601", "65", 185).
exit("Pepoli_3_1601", "65", 195).
enter("Pepoli_3_1601", "57[0]", 195).
exit("Pepoli_3_1601", "57[0]", 260).
enter("Pepoli_3_1601", "57[1]", 260).
exit("Pepoli_3_1601", "57[1]", 285).
enter("Pepoli_3_1601", "62", 285).
exit("Pepoli_3_1601", "62", 315).
enter("Pepoli_3_1601", "159", 315).
exit("Pepoli_3_1601", "159", 335).
enter("Pepoli_3_1601", "42", 335).
exit("Pepoli_3_1601", "42", 355).
enter("Pepoli_3_1601", "39", 355).
exit("Pepoli_3_1601", "39", 400).
enter("Pepoli_3_1601", "35", 400).
exit("Pepoli_3_1601", "35", 455).
enter("Pepoli_3_1601", "38", 455).
exit("Pepoli_3_1601", "38", 470).
enter("Pepoli_3_1601", "33", 470).
exit("Pepoli_3_1601", "33", 500).
enter("Pepoli_3_1601", "10", 500).
exit("Pepoli_3_1601", "10", 520).
origin("Vittorio_Veneto_2_644", "224[0]").
enter("Vittorio_Veneto_2_644", "224[0]", 0).
exit("Vittorio_Veneto_2_644", "224[0]", 140).
enter("Vittorio_Veneto_2_644", "224[1]", 140).
exit("Vittorio_Veneto_2_644", "224[1]", 200).
enter("Vittorio_Veneto_2_644", "[181|18]", 200).
exit("Vittorio_Veneto_2_644", "[181|18]", 275).
enter("Vittorio_Veneto_2_644", "[17|71]", 275).
exit("Vittorio_Veneto_2_644", "[17|71]", 330).
enter("Vittorio_Veneto_2_644", "67", 330).
exit("Vittorio_Veneto_2_644", "67", 345).
enter("Vittorio_Veneto_2_644", "[80|127]", 345).
exit("Vittorio_Veneto_2_644", "[80|127]", 380).
enter("Vittorio_Veneto_2_644", "(77[1][0])", 380).
exit("Vittorio_Veneto_2_644", "(77[1][0])", 400).
enter("Vittorio_Veneto_2_644", "77[1][1]", 400).
exit("Vittorio_Veneto_2_644", "77[1][1]", 440).
origin("Togliatti_10_589", "72[0]").
enter("Togliatti_10_589", "72[0]", 0).
exit("Togliatti_10_589", "72[0]", 55).
enter("Togliatti_10_589", "72[1]", 55).
exit("Togliatti_10_589", "72[1]", 95).
enter("Togliatti_10_589", "69", 95).
exit("Togliatti_10_589", "69", 190).
enter("Togliatti_10_589", "161", 190).
exit("Togliatti_10_589", "161", 240).
enter("Togliatti_10_589", "122", 240).
exit("Togliatti_10_589", "122", 295).
enter("Togliatti_10_589", "1b", 295).
exit("Togliatti_10_589", "1b", 355).
enter("Togliatti_10_589", "1", 355).
exit("Togliatti_10_589", "1", 390).
enter("Togliatti_10_589", "204a[0]", 390).
exit("Togliatti_10_589", "204a[0]", 510).
enter("Togliatti_10_589", "204b[0]", 510).
exit("Togliatti_10_589", "204b[0]", 515).
enter("Togliatti_10_589", "204[1][0]", 515).
exit("Togliatti_10_589", "204[1][0]", 550).
enter("Togliatti_10_589", "204[1][1]", 550).
exit("Togliatti_10_589", "204[1][1]", 585).
origin("XXI_Aprile_1_840", "86").
enter("XXI_Aprile_1_840", "86", 0).
exit("XXI_Aprile_1_840", "86", 30).
origin("Pepoli_3_1185", "39").
enter("Pepoli_3_1185", "39", 0).
exit("Pepoli_3_1185", "39", 20).
enter("Pepoli_3_1185", "35", 20).
exit("Pepoli_3_1185", "35", 75).
enter("Pepoli_3_1185", "38", 75).
exit("Pepoli_3_1185", "38", 135).
enter("Pepoli_3_1185", "15", 135).
exit("Pepoli_3_1185", "15", 210).
enter("Pepoli_3_1185", "14", 210).
exit("Pepoli_3_1185", "14", 250).
origin("Costa_200_1287", "161").
enter("Costa_200_1287", "161", 0).
exit("Costa_200_1287", "161", 50).
enter("Costa_200_1287", "122", 50).
exit("Costa_200_1287", "122", 150).
enter("Costa_200_1287", "1b", 150).
exit("Costa_200_1287", "1b", 210).
enter("Costa_200_1287", "1", 210).
exit("Costa_200_1287", "1", 245).
enter("Costa_200_1287", "204a[0]", 245).
exit("Costa_200_1287", "204a[0]", 365).
enter("Costa_200_1287", "204b[0]", 365).
exit("Costa_200_1287", "204b[0]", 370).
enter("Costa_200_1287", "204[1][0]", 370).
exit("Costa_200_1287", "204[1][0]", 405).
enter("Costa_200_1287", "204[1][1]", 405).
exit("Costa_200_1287", "204[1][1]", 440).
origin("Pepoli_3_1043", "15").
enter("Pepoli_3_1043", "15", 0).
exit("Pepoli_3_1043", "15", 75).
enter("Pepoli_3_1043", "14", 75).
exit("Pepoli_3_1043", "14", 115).
origin("XXI_Aprile_9_532", "122").
enter("XXI_Aprile_9_532", "122", 0).
exit("XXI_Aprile_9_532", "122", 100).
enter("XXI_Aprile_9_532", "1b", 100).
exit("XXI_Aprile_9_532", "1b", 160).
enter("XXI_Aprile_9_532", "1", 160).
exit("XXI_Aprile_9_532", "1", 195).
enter("XXI_Aprile_9_532", "204a[0]", 195).
exit("XXI_Aprile_9_532", "204a[0]", 315).
enter("XXI_Aprile_9_532", "204b[0]", 315).
exit("XXI_Aprile_9_532", "204b[0]", 320).
enter("XXI_Aprile_9_532", "54", 320).
exit("XXI_Aprile_9_532", "54", 345).
origin("Vittorio_Veneto_1_604", "224[1]").
enter("Vittorio_Veneto_1_604", "224[1]", 0).
exit("Vittorio_Veneto_1_604", "224[1]", 60).
enter("Vittorio_Veneto_1_604", "[181|18]", 60).
exit("Vittorio_Veneto_1_604", "[181|18]", 135).
enter("Vittorio_Veneto_1_604", "[17|71]", 135).
exit("Vittorio_Veneto_1_604", "[17|71]", 190).
enter("Vittorio_Veneto_1_604", "86", 190).
exit("Vittorio_Veneto_1_604", "86", 220).
origin("Pepoli_11_1701", "43[1]").
enter("Pepoli_11_1701", "43[1]", 0).
exit("Pepoli_11_1701", "43[1]", 70).
enter("Pepoli_11_1701", "201", 70).
exit("Pepoli_11_1701", "201", 205).
enter("Pepoli_11_1701", "201c", 205).
exit("Pepoli_11_1701", "201c", 240).
enter("Pepoli_11_1701", "204a[0]", 240).
exit("Pepoli_11_1701", "204a[0]", 360).
enter("Pepoli_11_1701", "124", 360).
exit("Pepoli_11_1701", "124", 405).
origin("Togliatti_10_486", "122").
enter("Togliatti_10_486", "122", 0).
exit("Togliatti_10_486", "122", 55).
enter("Togliatti_10_486", "1b", 55).
exit("Togliatti_10_486", "1b", 115).
enter("Togliatti_10_486", "1", 115).
exit("Togliatti_10_486", "1", 150).
enter("Togliatti_10_486", "204a[0]", 150).
exit("Togliatti_10_486", "204a[0]", 270).
enter("Togliatti_10_486", "204b[0]", 270).
exit("Togliatti_10_486", "204b[0]", 275).
enter("Togliatti_10_486", "204[1][0]", 275).
exit("Togliatti_10_486", "204[1][0]", 310).
enter("Togliatti_10_486", "204[1][1]", 310).
exit("Togliatti_10_486", "204[1][1]", 345).
origin("XXI_Aprile_94_774", "69").
enter("XXI_Aprile_94_774", "69", 0).
exit("XXI_Aprile_94_774", "69", 95).
enter("XXI_Aprile_94_774", "161", 95).
exit("XXI_Aprile_94_774", "161", 145).
enter("XXI_Aprile_94_774", "122", 145).
exit("XXI_Aprile_94_774", "122", 245).
enter("XXI_Aprile_94_774", "1b", 245).
exit("XXI_Aprile_94_774", "1b", 305).
enter("XXI_Aprile_94_774", "1", 305).
exit("XXI_Aprile_94_774", "1", 340).
enter("XXI_Aprile_94_774", "204a[0]", 340).
exit("XXI_Aprile_94_774", "204a[0]", 460).
enter("XXI_Aprile_94_774", "204b[0]", 460).
exit("XXI_Aprile_94_774", "204b[0]", 465).
enter("XXI_Aprile_94_774", "54", 465).
exit("XXI_Aprile_94_774", "54", 490).
origin("Pepoli_3_1030", "15").
enter("Pepoli_3_1030", "15", 0).
exit("Pepoli_3_1030", "15", 75).
enter("Pepoli_3_1030", "14", 75).
exit("Pepoli_3_1030", "14", 115).
origin("Pepoli_3_1208", "42").
enter("Pepoli_3_1208", "42", 0).
exit("Pepoli_3_1208", "42", 20).
enter("Pepoli_3_1208", "39", 20).
exit("Pepoli_3_1208", "39", 40).
enter("Pepoli_3_1208", "35", 40).
exit("Pepoli_3_1208", "35", 95).
enter("Pepoli_3_1208", "38", 95).
exit("Pepoli_3_1208", "38", 155).
enter("Pepoli_3_1208", "15", 155).
exit("Pepoli_3_1208", "15", 230).
enter("Pepoli_3_1208", "14", 230).
exit("Pepoli_3_1208", "14", 270).
origin("Pepoli_11_1883", "201").
enter("Pepoli_11_1883", "201", 0).
exit("Pepoli_11_1883", "201", 135).
enter("Pepoli_11_1883", "201c", 135).
exit("Pepoli_11_1883", "201c", 170).
enter("Pepoli_11_1883", "204a[0]", 170).
exit("Pepoli_11_1883", "204a[0]", 290).
enter("Pepoli_11_1883", "124", 290).
exit("Pepoli_11_1883", "124", 335).
origin("Togliatti_10_602", "72[0]").
enter("Togliatti_10_602", "72[0]", 0).
exit("Togliatti_10_602", "72[0]", 75).
enter("Togliatti_10_602", "72[1]", 75).
exit("Togliatti_10_602", "72[1]", 115).
enter("Togliatti_10_602", "69", 115).
exit("Togliatti_10_602", "69", 210).
enter("Togliatti_10_602", "161", 210).
exit("Togliatti_10_602", "161", 260).
enter("Togliatti_10_602", "122", 260).
exit("Togliatti_10_602", "122", 315).
enter("Togliatti_10_602", "1b", 315).
exit("Togliatti_10_602", "1b", 375).
enter("Togliatti_10_602", "1", 375).
exit("Togliatti_10_602", "1", 410).
enter("Togliatti_10_602", "204a[0]", 410).
exit("Togliatti_10_602", "204a[0]", 530).
enter("Togliatti_10_602", "204b[0]", 530).
exit("Togliatti_10_602", "204b[0]", 535).
enter("Togliatti_10_602", "204[1][0]", 535).
exit("Togliatti_10_602", "204[1][0]", 570).
enter("Togliatti_10_602", "204[1][1]", 570).
exit("Togliatti_10_602", "204[1][1]", 605).
origin("Vittorio_Veneto_10_494", "69").
enter("Vittorio_Veneto_10_494", "69", 0).
exit("Vittorio_Veneto_10_494", "69", 95).
enter("Vittorio_Veneto_10_494", "161", 95).
exit("Vittorio_Veneto_10_494", "161", 145).
enter("Vittorio_Veneto_10_494", "122", 145).
exit("Vittorio_Veneto_10_494", "122", 245).
enter("Vittorio_Veneto_10_494", "1b", 245).
exit("Vittorio_Veneto_10_494", "1b", 305).
enter("Vittorio_Veneto_10_494", "1", 305).
exit("Vittorio_Veneto_10_494", "1", 340).
enter("Vittorio_Veneto_10_494", "204a[0]", 340).
exit("Vittorio_Veneto_10_494", "204a[0]", 460).
enter("Vittorio_Veneto_10_494", "204b[0]", 460).
exit("Vittorio_Veneto_10_494", "204b[0]", 465).
enter("Vittorio_Veneto_10_494", "204[1][0]", 465).
exit("Vittorio_Veneto_10_494", "204[1][0]", 500).
enter("Vittorio_Veneto_10_494", "204[1][1]", 500).
exit("Vittorio_Veneto_10_494", "204[1][1]", 700).
origin("XXI_Aprile_7_794", "91").
enter("XXI_Aprile_7_794", "91", 0).
exit("XXI_Aprile_7_794", "91", 20).
enter("XXI_Aprile_7_794", "186", 20).
exit("XXI_Aprile_7_794", "186", 50).
enter("XXI_Aprile_7_794", "[109[0]|109[1][0]+20003|109[1][1]]", 50).
exit("XXI_Aprile_7_794", "[109[0]|109[1][0]+20003|109[1][1]]", 85).
enter("XXI_Aprile_7_794", "[116|46]", 85).
exit("XXI_Aprile_7_794", "[116|46]", 135).
enter("XXI_Aprile_7_794", "113", 135).
exit("XXI_Aprile_7_794", "113", 185).
enter("XXI_Aprile_7_794", "209", 185).
exit("XXI_Aprile_7_794", "209", 220).
origin("XXI_Aprile_7_749", "[116|46]").
enter("XXI_Aprile_7_749", "[116|46]", 0).
exit("XXI_Aprile_7_749", "[116|46]", 65).
enter("XXI_Aprile_7_749", "113", 65).
exit("XXI_Aprile_7_749", "113", 135).
enter("XXI_Aprile_7_749", "209", 135).
exit("XXI_Aprile_7_749", "209", 185).
origin("Vittorio_Veneto_2_563", "[17|71]").
enter("Vittorio_Veneto_2_563", "[17|71]", 0).
exit("Vittorio_Veneto_2_563", "[17|71]", 55).
enter("Vittorio_Veneto_2_563", "67", 55).
exit("Vittorio_Veneto_2_563", "67", 65).
enter("Vittorio_Veneto_2_563", "[80|127]", 65).
exit("Vittorio_Veneto_2_563", "[80|127]", 100).
enter("Vittorio_Veneto_2_563", "(77[1][0])", 100).
exit("Vittorio_Veneto_2_563", "(77[1][0])", 120).
enter("Vittorio_Veneto_2_563", "77[1][1]", 120).
exit("Vittorio_Veneto_2_563", "77[1][1]", 160).
origin("Pepoli_12_1409", "65").
enter("Pepoli_12_1409", "65", 0).
exit("Pepoli_12_1409", "65", 20).
enter("Pepoli_12_1409", "57[0]", 20).
exit("Pepoli_12_1409", "57[0]", 70).
enter("Pepoli_12_1409", "57[1]", 70).
exit("Pepoli_12_1409", "57[1]", 80).
enter("Pepoli_12_1409", "62", 80).
exit("Pepoli_12_1409", "62", 105).
enter("Pepoli_12_1409", "159", 105).
exit("Pepoli_12_1409", "159", 160).
enter("Pepoli_12_1409", "42", 160).
exit("Pepoli_12_1409", "42", 175).
enter("Pepoli_12_1409", "39", 175).
exit("Pepoli_12_1409", "39", 205).
enter("Pepoli_12_1409", "35", 205).
exit("Pepoli_12_1409", "35", 395).
enter("Pepoli_12_1409", "38", 395).
exit("Pepoli_12_1409", "38", 515).
enter("Pepoli_12_1409", "50", 515).
exit("Pepoli_12_1409", "50", 590).
enter("Pepoli_12_1409", "19", 590).
exit("Pepoli_12_1409", "19", 625).
enter("Pepoli_12_1409", "[22|59]", 625).
exit("Pepoli_12_1409", "[22|59]", 660).
enter("Pepoli_12_1409", "(53cd|53[0]|53[1][0])", 660).
exit("Pepoli_12_1409", "(53cd|53[0]|53[1][0])", 685).
enter("Pepoli_12_1409", "79", 685).
exit("Pepoli_12_1409", "79", 710).
enter("Pepoli_12_1409", "[68|11]", 710).
exit("Pepoli_12_1409", "[68|11]", 870).
enter("Pepoli_12_1409", "84", 870).
exit("Pepoli_12_1409", "84", 890).
enter("Pepoli_12_1409", "180", 890).
exit("Pepoli_12_1409", "180", 980).
origin("Pepoli_3_1329", "159").
enter("Pepoli_3_1329", "159", 0).
exit("Pepoli_3_1329", "159", 70).
enter("Pepoli_3_1329", "42", 70).
exit("Pepoli_3_1329", "42", 85).
enter("Pepoli_3_1329", "39", 85).
exit("Pepoli_3_1329", "39", 125).
enter("Pepoli_3_1329", "35", 125).
exit("Pepoli_3_1329", "35", 180).
enter("Pepoli_3_1329", "38", 180).
exit("Pepoli_3_1329", "38", 205).
enter("Pepoli_3_1329", "33", 205).
exit("Pepoli_3_1329", "33", 280).
enter("Pepoli_3_1329", "10", 280).
exit("Pepoli_3_1329", "10", 290).
origin("Vittorio_Veneto_32_632", "224[0]").
enter("Vittorio_Veneto_32_632", "224[0]", 0).
exit("Vittorio_Veneto_32_632", "224[0]", 80).
enter("Vittorio_Veneto_32_632", "224[1]", 80).
exit("Vittorio_Veneto_32_632", "224[1]", 145).
enter("Vittorio_Veneto_32_632", "[181|18]", 145).
exit("Vittorio_Veneto_32_632", "[181|18]", 195).
enter("Vittorio_Veneto_32_632", "[17|71]", 195).
exit("Vittorio_Veneto_32_632", "[17|71]", 245).
enter("Vittorio_Veneto_32_632", "67", 245).
exit("Vittorio_Veneto_32_632", "67", 260).
enter("Vittorio_Veneto_32_632", "[80|127]", 260).
exit("Vittorio_Veneto_32_632", "[80|127]", 275).
enter("Vittorio_Veneto_32_632", "(77[1][0]|77ab|77bc)", 275).
exit("Vittorio_Veneto_32_632", "(77[1][0]|77ab|77bc)", 330).
enter("Vittorio_Veneto_32_632", "21a", 330).
exit("Vittorio_Veneto_32_632", "21a", 335).
enter("Vittorio_Veneto_32_632", "21b", 335).
exit("Vittorio_Veneto_32_632", "21b", 350).
enter("Vittorio_Veneto_32_632", "103", 350).
exit("Vittorio_Veneto_32_632", "103", 395).
enter("Vittorio_Veneto_32_632", "14", 395).
exit("Vittorio_Veneto_32_632", "14", 405).
origin("XXI_Aprile_12_847", "[17|71]").
enter("XXI_Aprile_12_847", "[17|71]", 0).
exit("XXI_Aprile_12_847", "[17|71]", 75).
enter("XXI_Aprile_12_847", "84", 75).
exit("XXI_Aprile_12_847", "84", 90).
enter("XXI_Aprile_12_847", "180", 90).
exit("XXI_Aprile_12_847", "180", 110).
origin("Pepoli_12_901", "180").
enter("Pepoli_12_901", "180", 0).
exit("Pepoli_12_901", "180", 95).
origin("Pepoli_3_1089", "38").
enter("Pepoli_3_1089", "38", 0).
exit("Pepoli_3_1089", "38", 60).
enter("Pepoli_3_1089", "15", 60).
exit("Pepoli_3_1089", "15", 135).
enter("Pepoli_3_1089", "14", 135).
exit("Pepoli_3_1089", "14", 175).
origin("Pepoli_3_1494", "[210|43[0]]").
enter("Pepoli_3_1494", "[210|43[0]]", 0).
exit("Pepoli_3_1494", "[210|43[0]]", 185).
enter("Pepoli_3_1494", "118", 185).
exit("Pepoli_3_1494", "118", 305).
enter("Pepoli_3_1494", "65", 305).
exit("Pepoli_3_1494", "65", 330).
enter("Pepoli_3_1494", "57[0]", 330).
exit("Pepoli_3_1494", "57[0]", 345).
enter("Pepoli_3_1494", "57[1]", 345).
exit("Pepoli_3_1494", "57[1]", 420).
enter("Pepoli_3_1494", "62", 420).
exit("Pepoli_3_1494", "62", 460).
enter("Pepoli_3_1494", "159", 460).
exit("Pepoli_3_1494", "159", 515).
enter("Pepoli_3_1494", "42", 515).
exit("Pepoli_3_1494", "42", 660).
enter("Pepoli_3_1494", "39", 660).
exit("Pepoli_3_1494", "39", 685).
enter("Pepoli_3_1494", "35", 685).
exit("Pepoli_3_1494", "35", 725).
enter("Pepoli_3_1494", "38", 725).
exit("Pepoli_3_1494", "38", 755).
enter("Pepoli_3_1494", "15", 755).
exit("Pepoli_3_1494", "15", 815).
enter("Pepoli_3_1494", "14", 815).
exit("Pepoli_3_1494", "14", 825).
origin("Pepoli_12_1410", "65").
enter("Pepoli_12_1410", "65", 0).
exit("Pepoli_12_1410", "65", 40).
enter("Pepoli_12_1410", "57[0]", 40).
exit("Pepoli_12_1410", "57[0]", 75).
enter("Pepoli_12_1410", "57[1]", 75).
exit("Pepoli_12_1410", "57[1]", 115).
enter("Pepoli_12_1410", "62", 115).
exit("Pepoli_12_1410", "62", 235).
enter("Pepoli_12_1410", "159", 235).
exit("Pepoli_12_1410", "159", 290).
enter("Pepoli_12_1410", "42", 290).
exit("Pepoli_12_1410", "42", 345).
enter("Pepoli_12_1410", "39", 345).
exit("Pepoli_12_1410", "39", 350).
enter("Pepoli_12_1410", "35", 350).
exit("Pepoli_12_1410", "35", 420).
enter("Pepoli_12_1410", "38", 420).
exit("Pepoli_12_1410", "38", 470).
enter("Pepoli_12_1410", "50", 470).
exit("Pepoli_12_1410", "50", 485).
enter("Pepoli_12_1410", "19", 485).
exit("Pepoli_12_1410", "19", 525).
enter("Pepoli_12_1410", "[22|59]", 525).
exit("Pepoli_12_1410", "[22|59]", 540).
enter("Pepoli_12_1410", "(53cd|53[0])", 540).
exit("Pepoli_12_1410", "(53cd|53[0])", 550).
enter("Pepoli_12_1410", "78[1][1]", 550).
exit("Pepoli_12_1410", "78[1][1]", 575).
enter("Pepoli_12_1410", "[189[0]|189[1][0]+20000|189[1][1]]", 575).
exit("Pepoli_12_1410", "[189[0]|189[1][0]+20000|189[1][1]]", 640).
enter("Pepoli_12_1410", "191", 640).
exit("Pepoli_12_1410", "191", 685).
enter("Pepoli_12_1410", "[17|71]", 685).
exit("Pepoli_12_1410", "[17|71]", 740).
enter("Pepoli_12_1410", "84", 740).
exit("Pepoli_12_1410", "84", 795).
enter("Pepoli_12_1410", "180", 795).
exit("Pepoli_12_1410", "180", 825).
origin("Pepoli_3_1074", "38").
enter("Pepoli_3_1074", "38", 0).
exit("Pepoli_3_1074", "38", 60).
enter("Pepoli_3_1074", "15", 60).
exit("Pepoli_3_1074", "15", 135).
enter("Pepoli_3_1074", "14", 135).
exit("Pepoli_3_1074", "14", 175).
origin("Togliatti_11_516", "122").
enter("Togliatti_11_516", "122", 0).
exit("Togliatti_11_516", "122", 735).
enter("Togliatti_11_516", "1b", 735).
exit("Togliatti_11_516", "1b", 935).
enter("Togliatti_11_516", "1", 935).
exit("Togliatti_11_516", "1", 1665).
enter("Togliatti_11_516", "204a[0]", 1665).
exit("Togliatti_11_516", "204a[0]", 1720).
enter("Togliatti_11_516", "124", 1720).
exit("Togliatti_11_516", "124", 3480).
origin("Vittorio_Veneto_1_633", "224[0]").
enter("Vittorio_Veneto_1_633", "224[0]", 0).
exit("Vittorio_Veneto_1_633", "224[0]", 80).
enter("Vittorio_Veneto_1_633", "224[1]", 80).
exit("Vittorio_Veneto_1_633", "224[1]", 135).
enter("Vittorio_Veneto_1_633", "[181|18]", 135).
exit("Vittorio_Veneto_1_633", "[181|18]", 195).
enter("Vittorio_Veneto_1_633", "[17|71]", 195).
exit("Vittorio_Veneto_1_633", "[17|71]", 265).
enter("Vittorio_Veneto_1_633", "86", 265).
exit("Vittorio_Veneto_1_633", "86", 295).
origin("Togliatti_10_578", "72[0]").
enter("Togliatti_10_578", "72[0]", 0).
exit("Togliatti_10_578", "72[0]", 55).
enter("Togliatti_10_578", "72[1]", 55).
exit("Togliatti_10_578", "72[1]", 95).
enter("Togliatti_10_578", "69", 95).
exit("Togliatti_10_578", "69", 190).
enter("Togliatti_10_578", "161", 190).
exit("Togliatti_10_578", "161", 240).
enter("Togliatti_10_578", "122", 240).
exit("Togliatti_10_578", "122", 295).
enter("Togliatti_10_578", "1b", 295).
exit("Togliatti_10_578", "1b", 355).
enter("Togliatti_10_578", "1", 355).
exit("Togliatti_10_578", "1", 390).
enter("Togliatti_10_578", "204a[0]", 390).
exit("Togliatti_10_578", "204a[0]", 510).
enter("Togliatti_10_578", "204b[0]", 510).
exit("Togliatti_10_578", "204b[0]", 515).
enter("Togliatti_10_578", "204[1][0]", 515).
exit("Togliatti_10_578", "204[1][0]", 550).
enter("Togliatti_10_578", "204[1][1]", 550).
exit("Togliatti_10_578", "204[1][1]", 585).
origin("Pepoli_11_138", "204a[0]").
enter("Pepoli_11_138", "204a[0]", 0).
exit("Pepoli_11_138", "204a[0]", 65).
enter("Pepoli_11_138", "124", 65).
exit("Pepoli_11_138", "124", 140).
origin("Togliatti_10_467", "122").
enter("Togliatti_10_467", "122", 0).
exit("Togliatti_10_467", "122", 445).
enter("Togliatti_10_467", "1b", 445).
exit("Togliatti_10_467", "1b", 915).
enter("Togliatti_10_467", "1", 915).
exit("Togliatti_10_467", "1", 1050).
enter("Togliatti_10_467", "204a[0]", 1050).
exit("Togliatti_10_467", "204a[0]", 1310).
enter("Togliatti_10_467", "204b[0]", 1310).
exit("Togliatti_10_467", "204b[0]", 1350).
enter("Togliatti_10_467", "204[1][0]", 1350).
exit("Togliatti_10_467", "204[1][0]", 1410).
enter("Togliatti_10_467", "204[1][1]", 1410).
exit("Togliatti_10_467", "204[1][1]", 1655).
origin("Togliatti_11_691", "85").
enter("Togliatti_11_691", "85", 0).
exit("Togliatti_11_691", "85", 70).
enter("Togliatti_11_691", "72[0]", 70).
exit("Togliatti_11_691", "72[0]", 145).
enter("Togliatti_11_691", "72[1]", 145).
exit("Togliatti_11_691", "72[1]", 185).
enter("Togliatti_11_691", "69", 185).
exit("Togliatti_11_691", "69", 280).
enter("Togliatti_11_691", "161", 280).
exit("Togliatti_11_691", "161", 330).
enter("Togliatti_11_691", "122", 330).
exit("Togliatti_11_691", "122", 430).
enter("Togliatti_11_691", "1b", 430).
exit("Togliatti_11_691", "1b", 490).
enter("Togliatti_11_691", "1", 490).
exit("Togliatti_11_691", "1", 525).
enter("Togliatti_11_691", "204a[0]", 525).
exit("Togliatti_11_691", "204a[0]", 645).
enter("Togliatti_11_691", "124", 645).
exit("Togliatti_11_691", "124", 690).
origin("Togliatti_9_593", "72[0]").
enter("Togliatti_9_593", "72[0]", 0).
exit("Togliatti_9_593", "72[0]", 55).
enter("Togliatti_9_593", "72[1]", 55).
exit("Togliatti_9_593", "72[1]", 95).
enter("Togliatti_9_593", "69", 95).
exit("Togliatti_9_593", "69", 190).
enter("Togliatti_9_593", "161", 190).
exit("Togliatti_9_593", "161", 240).
enter("Togliatti_9_593", "122", 240).
exit("Togliatti_9_593", "122", 295).
enter("Togliatti_9_593", "1b", 295).
exit("Togliatti_9_593", "1b", 355).
enter("Togliatti_9_593", "1", 355).
exit("Togliatti_9_593", "1", 390).
enter("Togliatti_9_593", "204a[0]", 390).
exit("Togliatti_9_593", "204a[0]", 510).
enter("Togliatti_9_593", "204b[0]", 510).
exit("Togliatti_9_593", "204b[0]", 515).
enter("Togliatti_9_593", "54", 515).
exit("Togliatti_9_593", "54", 540).
origin("Togliatti_10_641", "85").
enter("Togliatti_10_641", "85", 0).
exit("Togliatti_10_641", "85", 70).
enter("Togliatti_10_641", "72[0]", 70).
exit("Togliatti_10_641", "72[0]", 145).
enter("Togliatti_10_641", "72[1]", 145).
exit("Togliatti_10_641", "72[1]", 185).
enter("Togliatti_10_641", "69", 185).
exit("Togliatti_10_641", "69", 280).
enter("Togliatti_10_641", "161", 280).
exit("Togliatti_10_641", "161", 330).
enter("Togliatti_10_641", "122", 330).
exit("Togliatti_10_641", "122", 430).
enter("Togliatti_10_641", "1b", 430).
exit("Togliatti_10_641", "1b", 490).
enter("Togliatti_10_641", "1", 490).
exit("Togliatti_10_641", "1", 525).
enter("Togliatti_10_641", "204a[0]", 525).
exit("Togliatti_10_641", "204a[0]", 645).
enter("Togliatti_10_641", "204b[0]", 645).
exit("Togliatti_10_641", "204b[0]", 650).
enter("Togliatti_10_641", "204[1][0]", 650).
exit("Togliatti_10_641", "204[1][0]", 685).
enter("Togliatti_10_641", "204[1][1]", 685).
exit("Togliatti_10_641", "204[1][1]", 740).
origin("Togliatti_10_648", "85").
enter("Togliatti_10_648", "85", 0).
exit("Togliatti_10_648", "85", 70).
enter("Togliatti_10_648", "72[0]", 70).
exit("Togliatti_10_648", "72[0]", 145).
enter("Togliatti_10_648", "72[1]", 145).
exit("Togliatti_10_648", "72[1]", 185).
enter("Togliatti_10_648", "69", 185).
exit("Togliatti_10_648", "69", 280).
enter("Togliatti_10_648", "161", 280).
exit("Togliatti_10_648", "161", 330).
enter("Togliatti_10_648", "122", 330).
exit("Togliatti_10_648", "122", 430).
enter("Togliatti_10_648", "1b", 430).
exit("Togliatti_10_648", "1b", 490).
enter("Togliatti_10_648", "1", 490).
exit("Togliatti_10_648", "1", 525).
enter("Togliatti_10_648", "204a[0]", 525).
exit("Togliatti_10_648", "204a[0]", 645).
enter("Togliatti_10_648", "204b[0]", 645).
exit("Togliatti_10_648", "204b[0]", 650).
enter("Togliatti_10_648", "204[1][0]", 650).
exit("Togliatti_10_648", "204[1][0]", 685).
enter("Togliatti_10_648", "204[1][1]", 685).
exit("Togliatti_10_648", "204[1][1]", 790).
origin("Vittorio_Veneto_10_489", "69").
enter("Vittorio_Veneto_10_489", "69", 0).
exit("Vittorio_Veneto_10_489", "69", 95).
enter("Vittorio_Veneto_10_489", "161", 95).
exit("Vittorio_Veneto_10_489", "161", 145).
enter("Vittorio_Veneto_10_489", "122", 145).
exit("Vittorio_Veneto_10_489", "122", 245).
enter("Vittorio_Veneto_10_489", "1b", 245).
exit("Vittorio_Veneto_10_489", "1b", 305).
enter("Vittorio_Veneto_10_489", "1", 305).
exit("Vittorio_Veneto_10_489", "1", 340).
enter("Vittorio_Veneto_10_489", "204a[0]", 340).
exit("Vittorio_Veneto_10_489", "204a[0]", 460).
enter("Vittorio_Veneto_10_489", "204b[0]", 460).
exit("Vittorio_Veneto_10_489", "204b[0]", 465).
enter("Vittorio_Veneto_10_489", "204[1][0]", 465).
exit("Vittorio_Veneto_10_489", "204[1][0]", 500).
enter("Vittorio_Veneto_10_489", "204[1][1]", 500).
exit("Vittorio_Veneto_10_489", "204[1][1]", 700).
origin("XXI_Aprile_1_848", "[17|71]").
enter("XXI_Aprile_1_848", "[17|71]", 0).
exit("XXI_Aprile_1_848", "[17|71]", 110).
enter("XXI_Aprile_1_848", "86", 110).
exit("XXI_Aprile_1_848", "86", 140).
origin("Pepoli_11_1886", "43[1]").
enter("Pepoli_11_1886", "43[1]", 0).
exit("Pepoli_11_1886", "43[1]", 70).
enter("Pepoli_11_1886", "201", 70).
exit("Pepoli_11_1886", "201", 205).
enter("Pepoli_11_1886", "201c", 205).
exit("Pepoli_11_1886", "201c", 240).
enter("Pepoli_11_1886", "204a[0]", 240).
exit("Pepoli_11_1886", "204a[0]", 360).
enter("Pepoli_11_1886", "124", 360).
exit("Pepoli_11_1886", "124", 405).
origin("Pepoli_11_1958", "204a[0]").
enter("Pepoli_11_1958", "204a[0]", 0).
exit("Pepoli_11_1958", "204a[0]", 120).
enter("Pepoli_11_1958", "124", 120).
exit("Pepoli_11_1958", "124", 165).
origin("Costa_200_851", "122").
enter("Costa_200_851", "122", 0).
exit("Costa_200_851", "122", 100).
enter("Costa_200_851", "1b", 100).
exit("Costa_200_851", "1b", 160).
enter("Costa_200_851", "1", 160).
exit("Costa_200_851", "1", 195).
enter("Costa_200_851", "204a[0]", 195).
exit("Costa_200_851", "204a[0]", 315).
enter("Costa_200_851", "204b[0]", 315).
exit("Costa_200_851", "204b[0]", 320).
enter("Costa_200_851", "204[1][0]", 320).
exit("Costa_200_851", "204[1][0]", 355).
enter("Costa_200_851", "204[1][1]", 355).
exit("Costa_200_851", "204[1][1]", 555).
origin("Pepoli_11_1989", "201").
enter("Pepoli_11_1989", "201", 0).
exit("Pepoli_11_1989", "201", 135).
enter("Pepoli_11_1989", "201c", 135).
exit("Pepoli_11_1989", "201c", 170).
enter("Pepoli_11_1989", "204a[0]", 170).
exit("Pepoli_11_1989", "204a[0]", 290).
enter("Pepoli_11_1989", "124", 290).
exit("Pepoli_11_1989", "124", 335).
origin("Vittorio_Veneto_2_622", "224[0]").
enter("Vittorio_Veneto_2_622", "224[0]", 0).
exit("Vittorio_Veneto_2_622", "224[0]", 140).
enter("Vittorio_Veneto_2_622", "224[1]", 140).
exit("Vittorio_Veneto_2_622", "224[1]", 200).
enter("Vittorio_Veneto_2_622", "[181|18]", 200).
exit("Vittorio_Veneto_2_622", "[181|18]", 275).
enter("Vittorio_Veneto_2_622", "[17|71]", 275).
exit("Vittorio_Veneto_2_622", "[17|71]", 330).
enter("Vittorio_Veneto_2_622", "67", 330).
exit("Vittorio_Veneto_2_622", "67", 345).
enter("Vittorio_Veneto_2_622", "[80|127]", 345).
exit("Vittorio_Veneto_2_622", "[80|127]", 365).
enter("Vittorio_Veneto_2_622", "(77[1][0])", 365).
exit("Vittorio_Veneto_2_622", "(77[1][0])", 385).
enter("Vittorio_Veneto_2_622", "77[1][1]", 385).
exit("Vittorio_Veneto_2_622", "77[1][1]", 425).
origin("Pepoli_12_987", "19").
enter("Pepoli_12_987", "19", 0).
exit("Pepoli_12_987", "19", 35).
enter("Pepoli_12_987", "[22|59]", 35).
exit("Pepoli_12_987", "[22|59]", 105).
enter("Pepoli_12_987", "(53cd|53[0]|53[1][0])", 105).
exit("Pepoli_12_987", "(53cd|53[0]|53[1][0])", 125).
enter("Pepoli_12_987", "79", 125).
exit("Pepoli_12_987", "79", 195).
enter("Pepoli_12_987", "[68|11]", 195).
exit("Pepoli_12_987", "[68|11]", 250).
enter("Pepoli_12_987", "84", 250).
exit("Pepoli_12_987", "84", 270).
enter("Pepoli_12_987", "180", 270).
exit("Pepoli_12_987", "180", 365).
origin("Costa_50_1360", "[200|60]").
enter("Costa_50_1360", "[200|60]", 0).
exit("Costa_50_1360", "[200|60]", 135).
origin("Pepoli_11_1591", "204a[0]").
enter("Pepoli_11_1591", "204a[0]", 0).
exit("Pepoli_11_1591", "204a[0]", 120).
enter("Pepoli_11_1591", "124", 120).
exit("Pepoli_11_1591", "124", 165).
origin("Pepoli_3_1661", "[210|43[0]]").
enter("Pepoli_3_1661", "[210|43[0]]", 0).
exit("Pepoli_3_1661", "[210|43[0]]", 65).
enter("Pepoli_3_1661", "118", 65).
exit("Pepoli_3_1661", "118", 125).
enter("Pepoli_3_1661", "65", 125).
exit("Pepoli_3_1661", "65", 170).
enter("Pepoli_3_1661", "57[0]", 170).
exit("Pepoli_3_1661", "57[0]", 205).
enter("Pepoli_3_1661", "57[1]", 205).
exit("Pepoli_3_1661", "57[1]", 245).
enter("Pepoli_3_1661", "62", 245).
exit("Pepoli_3_1661", "62", 295).
enter("Pepoli_3_1661", "159", 295).
exit("Pepoli_3_1661", "159", 315).
enter("Pepoli_3_1661", "42", 315).
exit("Pepoli_3_1661", "42", 335).
enter("Pepoli_3_1661", "39", 335).
exit("Pepoli_3_1661", "39", 400).
enter("Pepoli_3_1661", "35", 400).
exit("Pepoli_3_1661", "35", 435).
enter("Pepoli_3_1661", "38", 435).
exit("Pepoli_3_1661", "38", 470).
enter("Pepoli_3_1661", "33", 470).
exit("Pepoli_3_1661", "33", 500).
enter("Pepoli_3_1661", "10", 500).
exit("Pepoli_3_1661", "10", 540).
origin("Pepoli_3_1555", "[210|43[0]]").
enter("Pepoli_3_1555", "[210|43[0]]", 0).
exit("Pepoli_3_1555", "[210|43[0]]", 80).
enter("Pepoli_3_1555", "118", 80).
exit("Pepoli_3_1555", "118", 140).
enter("Pepoli_3_1555", "65", 140).
exit("Pepoli_3_1555", "65", 185).
enter("Pepoli_3_1555", "57[0]", 185).
exit("Pepoli_3_1555", "57[0]", 270).
enter("Pepoli_3_1555", "57[1]", 270).
exit("Pepoli_3_1555", "57[1]", 285).
enter("Pepoli_3_1555", "62", 285).
exit("Pepoli_3_1555", "62", 335).
enter("Pepoli_3_1555", "159", 335).
exit("Pepoli_3_1555", "159", 440).
enter("Pepoli_3_1555", "42", 440).
exit("Pepoli_3_1555", "42", 460).
enter("Pepoli_3_1555", "39", 460).
exit("Pepoli_3_1555", "39", 480).
enter("Pepoli_3_1555", "35", 480).
exit("Pepoli_3_1555", "35", 535).
enter("Pepoli_3_1555", "38", 535).
exit("Pepoli_3_1555", "38", 595).
enter("Pepoli_3_1555", "15", 595).
exit("Pepoli_3_1555", "15", 670).
enter("Pepoli_3_1555", "14", 670).
exit("Pepoli_3_1555", "14", 710).
origin("Pepoli_11_1957", "201").
enter("Pepoli_11_1957", "201", 0).
exit("Pepoli_11_1957", "201", 135).
enter("Pepoli_11_1957", "201c", 135).
exit("Pepoli_11_1957", "201c", 170).
enter("Pepoli_11_1957", "204a[0]", 170).
exit("Pepoli_11_1957", "204a[0]", 290).
enter("Pepoli_11_1957", "124", 290).
exit("Pepoli_11_1957", "124", 335).
origin("XXI_Aprile_7_699", "209").
enter("XXI_Aprile_7_699", "209", 0).
exit("XXI_Aprile_7_699", "209", 35).
origin("XXI_Aprile_7_992", "36").
enter("XXI_Aprile_7_992", "36", 0).
exit("XXI_Aprile_7_992", "36", 10).
enter("XXI_Aprile_7_992", "40", 10).
exit("XXI_Aprile_7_992", "40", 20).
enter("XXI_Aprile_7_992", "41", 20).
exit("XXI_Aprile_7_992", "41", 35).
enter("XXI_Aprile_7_992", "160", 35).
exit("XXI_Aprile_7_992", "160", 55).
enter("XXI_Aprile_7_992", "61", 55).
exit("XXI_Aprile_7_992", "61", 75).
enter("XXI_Aprile_7_992", "58[0]", 75).
exit("XXI_Aprile_7_992", "58[0]", 80).
enter("XXI_Aprile_7_992", "58[1]", 80).
exit("XXI_Aprile_7_992", "58[1]", 95).
enter("XXI_Aprile_7_992", "66", 95).
exit("XXI_Aprile_7_992", "66", 105).
enter("XXI_Aprile_7_992", "117", 105).
exit("XXI_Aprile_7_992", "117", 150).
enter("XXI_Aprile_7_992", "209", 150).
exit("XXI_Aprile_7_992", "209", 185).
origin("Pepoli_11_1924", "204a[0]").
enter("Pepoli_11_1924", "204a[0]", 0).
exit("Pepoli_11_1924", "204a[0]", 120).
enter("Pepoli_11_1924", "124", 120).
exit("Pepoli_11_1924", "124", 165).
origin("Pepoli_11_2085", "43[1]").
enter("Pepoli_11_2085", "43[1]", 0).
exit("Pepoli_11_2085", "43[1]", 70).
enter("Pepoli_11_2085", "201", 70).
exit("Pepoli_11_2085", "201", 205).
enter("Pepoli_11_2085", "201c", 205).
exit("Pepoli_11_2085", "201c", 240).
enter("Pepoli_11_2085", "204a[0]", 240).
exit("Pepoli_11_2085", "204a[0]", 360).
enter("Pepoli_11_2085", "124", 360).
exit("Pepoli_11_2085", "124", 405).
origin("Pepoli_12_1675", "[210|43[0]]").
enter("Pepoli_12_1675", "[210|43[0]]", 0).
exit("Pepoli_12_1675", "[210|43[0]]", 145).
enter("Pepoli_12_1675", "118", 145).
exit("Pepoli_12_1675", "118", 185).
enter("Pepoli_12_1675", "65", 185).
exit("Pepoli_12_1675", "65", 215).
enter("Pepoli_12_1675", "57[0]", 215).
exit("Pepoli_12_1675", "57[0]", 255).
enter("Pepoli_12_1675", "57[1]", 255).
exit("Pepoli_12_1675", "57[1]", 285).
enter("Pepoli_12_1675", "62", 285).
exit("Pepoli_12_1675", "62", 350).
enter("Pepoli_12_1675", "159", 350).
exit("Pepoli_12_1675", "159", 405).
enter("Pepoli_12_1675", "42", 405).
exit("Pepoli_12_1675", "42", 430).
enter("Pepoli_12_1675", "39", 430).
exit("Pepoli_12_1675", "39", 440).
enter("Pepoli_12_1675", "35", 440).
exit("Pepoli_12_1675", "35", 510).
enter("Pepoli_12_1675", "38", 510).
exit("Pepoli_12_1675", "38", 530).
enter("Pepoli_12_1675", "33", 530).
exit("Pepoli_12_1675", "33", 540).
enter("Pepoli_12_1675", "10", 540).
exit("Pepoli_12_1675", "10", 555).
enter("Pepoli_12_1675", "[13|104]", 555).
exit("Pepoli_12_1675", "[13|104]", 610).
enter("Pepoli_12_1675", "24", 610).
exit("Pepoli_12_1675", "24", 640).
enter("Pepoli_12_1675", "[22|59]", 640).
exit("Pepoli_12_1675", "[22|59]", 695).
enter("Pepoli_12_1675", "(53cd|53[0])", 695).
exit("Pepoli_12_1675", "(53cd|53[0])", 715).
enter("Pepoli_12_1675", "78[1][1]", 715).
exit("Pepoli_12_1675", "78[1][1]", 735).
enter("Pepoli_12_1675", "[189[0]|189[1][0]+20000|189[1][1]]", 735).
exit("Pepoli_12_1675", "[189[0]|189[1][0]+20000|189[1][1]]", 785).
enter("Pepoli_12_1675", "191", 785).
exit("Pepoli_12_1675", "191", 855).
enter("Pepoli_12_1675", "[17|71]", 855).
exit("Pepoli_12_1675", "[17|71]", 910).
enter("Pepoli_12_1675", "84", 910).
exit("Pepoli_12_1675", "84", 930).
enter("Pepoli_12_1675", "180", 930).
exit("Pepoli_12_1675", "180", 950).
origin("Costa_200_1195", "161").
enter("Costa_200_1195", "161", 0).
exit("Costa_200_1195", "161", 50).
enter("Costa_200_1195", "122", 50).
exit("Costa_200_1195", "122", 150).
enter("Costa_200_1195", "1b", 150).
exit("Costa_200_1195", "1b", 210).
enter("Costa_200_1195", "1", 210).
exit("Costa_200_1195", "1", 245).
enter("Costa_200_1195", "204a[0]", 245).
exit("Costa_200_1195", "204a[0]", 365).
enter("Costa_200_1195", "204b[0]", 365).
exit("Costa_200_1195", "204b[0]", 370).
enter("Costa_200_1195", "204[1][0]", 370).
exit("Costa_200_1195", "204[1][0]", 405).
enter("Costa_200_1195", "204[1][1]", 405).
exit("Costa_200_1195", "204[1][1]", 440).
origin("Vittorio_Veneto_10_536", "[181|18]").
enter("Vittorio_Veneto_10_536", "[181|18]", 0).
exit("Vittorio_Veneto_10_536", "[181|18]", 75).
enter("Vittorio_Veneto_10_536", "69", 75).
exit("Vittorio_Veneto_10_536", "69", 170).
enter("Vittorio_Veneto_10_536", "161", 170).
exit("Vittorio_Veneto_10_536", "161", 220).
enter("Vittorio_Veneto_10_536", "122", 220).
exit("Vittorio_Veneto_10_536", "122", 320).
enter("Vittorio_Veneto_10_536", "1b", 320).
exit("Vittorio_Veneto_10_536", "1b", 380).
enter("Vittorio_Veneto_10_536", "1", 380).
exit("Vittorio_Veneto_10_536", "1", 415).
enter("Vittorio_Veneto_10_536", "204a[0]", 415).
exit("Vittorio_Veneto_10_536", "204a[0]", 535).
enter("Vittorio_Veneto_10_536", "204b[0]", 535).
exit("Vittorio_Veneto_10_536", "204b[0]", 540).
enter("Vittorio_Veneto_10_536", "204[1][0]", 540).
exit("Vittorio_Veneto_10_536", "204[1][0]", 575).
enter("Vittorio_Veneto_10_536", "204[1][1]", 575).
exit("Vittorio_Veneto_10_536", "204[1][1]", 610).
origin("Pepoli_12_1678", "[210|43[0]]").
enter("Pepoli_12_1678", "[210|43[0]]", 0).
exit("Pepoli_12_1678", "[210|43[0]]", 125).
enter("Pepoli_12_1678", "118", 125).
exit("Pepoli_12_1678", "118", 185).
enter("Pepoli_12_1678", "65", 185).
exit("Pepoli_12_1678", "65", 230).
enter("Pepoli_12_1678", "57[0]", 230).
exit("Pepoli_12_1678", "57[0]", 255).
enter("Pepoli_12_1678", "57[1]", 255).
exit("Pepoli_12_1678", "57[1]", 285).
enter("Pepoli_12_1678", "62", 285).
exit("Pepoli_12_1678", "62", 335).
enter("Pepoli_12_1678", "159", 335).
exit("Pepoli_12_1678", "159", 365).
enter("Pepoli_12_1678", "42", 365).
exit("Pepoli_12_1678", "42", 380).
enter("Pepoli_12_1678", "39", 380).
exit("Pepoli_12_1678", "39", 400).
enter("Pepoli_12_1678", "35", 400).
exit("Pepoli_12_1678", "35", 420).
enter("Pepoli_12_1678", "38", 420).
exit("Pepoli_12_1678", "38", 470).
enter("Pepoli_12_1678", "33", 470).
exit("Pepoli_12_1678", "33", 500).
enter("Pepoli_12_1678", "10", 500).
exit("Pepoli_12_1678", "10", 555).
enter("Pepoli_12_1678", "[13|104]", 555).
exit("Pepoli_12_1678", "[13|104]", 610).
enter("Pepoli_12_1678", "24", 610).
exit("Pepoli_12_1678", "24", 625).
enter("Pepoli_12_1678", "[22|59]", 625).
exit("Pepoli_12_1678", "[22|59]", 650).
enter("Pepoli_12_1678", "(53cd|53[0]|53[1][0])", 650).
exit("Pepoli_12_1678", "(53cd|53[0]|53[1][0])", 675).
enter("Pepoli_12_1678", "79", 675).
exit("Pepoli_12_1678", "79", 695).
enter("Pepoli_12_1678", "[68|11]", 695).
exit("Pepoli_12_1678", "[68|11]", 765).
enter("Pepoli_12_1678", "84", 765).
exit("Pepoli_12_1678", "84", 795).
enter("Pepoli_12_1678", "180", 795).
exit("Pepoli_12_1678", "180", 1140).
origin("XXI_Aprile_113_933", "197").
enter("XXI_Aprile_113_933", "197", 0).
exit("XXI_Aprile_113_933", "197", 35).
enter("XXI_Aprile_113_933", "[109[0]|109[1][0]+20003|109[1][1]]", 35).
exit("XXI_Aprile_113_933", "[109[0]|109[1][0]+20003|109[1][1]]", 45).
enter("XXI_Aprile_113_933", "[116|46]", 45).
exit("XXI_Aprile_113_933", "[116|46]", 125).
enter("XXI_Aprile_113_933", "201", 125).
exit("XXI_Aprile_113_933", "201", 355).
enter("XXI_Aprile_113_933", "201c", 355).
exit("XXI_Aprile_113_933", "201c", 515).
enter("XXI_Aprile_113_933", "204a[0]", 515).
exit("XXI_Aprile_113_933", "204a[0]", 605).
enter("XXI_Aprile_113_933", "124", 605).
exit("XXI_Aprile_113_933", "124", 2545).
origin("XXI_Aprile_7_925", "74").
enter("XXI_Aprile_7_925", "74", 0).
exit("XXI_Aprile_7_925", "74", 225).
enter("XXI_Aprile_7_925", "72[1]", 225).
exit("XXI_Aprile_7_925", "72[1]", 260).
enter("XXI_Aprile_7_925", "69", 260).
exit("XXI_Aprile_7_925", "69", 310).
enter("XXI_Aprile_7_925", "161", 310).
exit("XXI_Aprile_7_925", "161", 345).
enter("XXI_Aprile_7_925", "194", 345).
exit("XXI_Aprile_7_925", "194", 390).
enter("XXI_Aprile_7_925", "91", 390).
exit("XXI_Aprile_7_925", "91", 410).
enter("XXI_Aprile_7_925", "186", 410).
exit("XXI_Aprile_7_925", "186", 655).
enter("XXI_Aprile_7_925", "[109[0]|109[1][0]+20003|109[1][1]]", 655).
exit("XXI_Aprile_7_925", "[109[0]|109[1][0]+20003|109[1][1]]", 675).
enter("XXI_Aprile_7_925", "120", 675).
exit("XXI_Aprile_7_925", "120", 715).
enter("XXI_Aprile_7_925", "117", 715).
exit("XXI_Aprile_7_925", "117", 770).
enter("XXI_Aprile_7_925", "209", 770).
exit("XXI_Aprile_7_925", "209", 1025).
origin("XXI_Aprile_102_511", "1b").
enter("XXI_Aprile_102_511", "1b", 0).
exit("XXI_Aprile_102_511", "1b", 60).
enter("XXI_Aprile_102_511", "1", 60).
exit("XXI_Aprile_102_511", "1", 95).
enter("XXI_Aprile_102_511", "204a[0]", 95).
exit("XXI_Aprile_102_511", "204a[0]", 215).
enter("XXI_Aprile_102_511", "204b[0]", 215).
exit("XXI_Aprile_102_511", "204b[0]", 220).
enter("XXI_Aprile_102_511", "204[1][0]", 220).
exit("XXI_Aprile_102_511", "204[1][0]", 255).
enter("XXI_Aprile_102_511", "204[1][1]", 255).
exit("XXI_Aprile_102_511", "204[1][1]", 310).
origin("Pepoli_11_1913", "204a[0]").
enter("Pepoli_11_1913", "204a[0]", 0).
exit("Pepoli_11_1913", "204a[0]", 120).
enter("Pepoli_11_1913", "124", 120).
exit("Pepoli_11_1913", "124", 165).
origin("Pepoli_3_1062", "38").
enter("Pepoli_3_1062", "38", 0).
exit("Pepoli_3_1062", "38", 60).
enter("Pepoli_3_1062", "15", 60).
exit("Pepoli_3_1062", "15", 135).
enter("Pepoli_3_1062", "14", 135).
exit("Pepoli_3_1062", "14", 175).
origin("Pepoli_3_1330", "159").
enter("Pepoli_3_1330", "159", 0).
exit("Pepoli_3_1330", "159", 140).
enter("Pepoli_3_1330", "42", 140).
exit("Pepoli_3_1330", "42", 190).
enter("Pepoli_3_1330", "39", 190).
exit("Pepoli_3_1330", "39", 220).
enter("Pepoli_3_1330", "35", 220).
exit("Pepoli_3_1330", "35", 280).
enter("Pepoli_3_1330", "38", 280).
exit("Pepoli_3_1330", "38", 295).
enter("Pepoli_3_1330", "33", 295).
exit("Pepoli_3_1330", "33", 355).
enter("Pepoli_3_1330", "10", 355).
exit("Pepoli_3_1330", "10", 935).
origin("Pepoli_3_1638", "[210|43[0]]").
enter("Pepoli_3_1638", "[210|43[0]]", 0).
exit("Pepoli_3_1638", "[210|43[0]]", 65).
enter("Pepoli_3_1638", "118", 65).
exit("Pepoli_3_1638", "118", 85).
enter("Pepoli_3_1638", "65", 85).
exit("Pepoli_3_1638", "65", 105).
enter("Pepoli_3_1638", "57[0]", 105).
exit("Pepoli_3_1638", "57[0]", 125).
enter("Pepoli_3_1638", "57[1]", 125).
exit("Pepoli_3_1638", "57[1]", 165).
enter("Pepoli_3_1638", "62", 165).
exit("Pepoli_3_1638", "62", 190).
enter("Pepoli_3_1638", "159", 190).
exit("Pepoli_3_1638", "159", 225).
enter("Pepoli_3_1638", "42", 225).
exit("Pepoli_3_1638", "42", 250).
enter("Pepoli_3_1638", "39", 250).
exit("Pepoli_3_1638", "39", 295).
enter("Pepoli_3_1638", "35", 295).
exit("Pepoli_3_1638", "35", 305).
enter("Pepoli_3_1638", "38", 305).
exit("Pepoli_3_1638", "38", 350).
enter("Pepoli_3_1638", "15", 350).
exit("Pepoli_3_1638", "15", 395).
enter("Pepoli_3_1638", "14", 395).
exit("Pepoli_3_1638", "14", 405).
origin("Costa_91_921", "122").
enter("Costa_91_921", "122", 0).
exit("Costa_91_921", "122", 100).
enter("Costa_91_921", "1b", 100).
exit("Costa_91_921", "1b", 160).
enter("Costa_91_921", "1", 160).
exit("Costa_91_921", "1", 195).
enter("Costa_91_921", "204a[0]", 195).
exit("Costa_91_921", "204a[0]", 315).
enter("Costa_91_921", "204b[0]", 315).
exit("Costa_91_921", "204b[0]", 320).
enter("Costa_91_921", "54", 320).
exit("Costa_91_921", "54", 345).
origin("Costa_200_213", "204a[0]").
enter("Costa_200_213", "204a[0]", 0).
exit("Costa_200_213", "204a[0]", 120).
enter("Costa_200_213", "204b[0]", 120).
exit("Costa_200_213", "204b[0]", 125).
enter("Costa_200_213", "204[1][0]", 125).
exit("Costa_200_213", "204[1][0]", 160).
enter("Costa_200_213", "204[1][1]", 160).
exit("Costa_200_213", "204[1][1]", 195).
origin("Pepoli_1_1106", "38").
enter("Pepoli_1_1106", "38", 0).
exit("Pepoli_1_1106", "38", 60).
enter("Pepoli_1_1106", "50", 60).
exit("Pepoli_1_1106", "50", 120).
enter("Pepoli_1_1106", "19", 120).
exit("Pepoli_1_1106", "19", 155).
enter("Pepoli_1_1106", "[22|59]", 155).
exit("Pepoli_1_1106", "[22|59]", 225).
enter("Pepoli_1_1106", "(53cd|53[0]|53[1][0])", 225).
exit("Pepoli_1_1106", "(53cd|53[0]|53[1][0])", 245).
enter("Pepoli_1_1106", "79", 245).
exit("Pepoli_1_1106", "79", 315).
enter("Pepoli_1_1106", "[68|11]", 315).
exit("Pepoli_1_1106", "[68|11]", 395).
enter("Pepoli_1_1106", "86", 395).
exit("Pepoli_1_1106", "86", 425).
origin("XXI_Aprile_102_574", "161").
enter("XXI_Aprile_102_574", "161", 0).
exit("XXI_Aprile_102_574", "161", 90).
enter("XXI_Aprile_102_574", "122", 90).
exit("XXI_Aprile_102_574", "122", 190).
enter("XXI_Aprile_102_574", "1b", 190).
exit("XXI_Aprile_102_574", "1b", 250).
enter("XXI_Aprile_102_574", "1", 250).
exit("XXI_Aprile_102_574", "1", 285).
enter("XXI_Aprile_102_574", "204a[0]", 285).
exit("XXI_Aprile_102_574", "204a[0]", 405).
enter("XXI_Aprile_102_574", "204b[0]", 405).
exit("XXI_Aprile_102_574", "204b[0]", 410).
enter("XXI_Aprile_102_574", "204[1][0]", 410).
exit("XXI_Aprile_102_574", "204[1][0]", 445).
enter("XXI_Aprile_102_574", "204[1][1]", 445).
exit("XXI_Aprile_102_574", "204[1][1]", 645).
origin("XXI_Aprile_102_622", "161").
enter("XXI_Aprile_102_622", "161", 0).
exit("XXI_Aprile_102_622", "161", 50).
enter("XXI_Aprile_102_622", "122", 50).
exit("XXI_Aprile_102_622", "122", 150).
enter("XXI_Aprile_102_622", "1b", 150).
exit("XXI_Aprile_102_622", "1b", 210).
enter("XXI_Aprile_102_622", "1", 210).
exit("XXI_Aprile_102_622", "1", 245).
enter("XXI_Aprile_102_622", "204a[0]", 245).
exit("XXI_Aprile_102_622", "204a[0]", 365).
enter("XXI_Aprile_102_622", "204b[0]", 365).
exit("XXI_Aprile_102_622", "204b[0]", 370).
enter("XXI_Aprile_102_622", "204[1][0]", 370).
exit("XXI_Aprile_102_622", "204[1][0]", 405).
enter("XXI_Aprile_102_622", "204[1][1]", 405).
exit("XXI_Aprile_102_622", "204[1][1]", 605).
origin("XXI_Aprile_7_938", "74").
enter("XXI_Aprile_7_938", "74", 0).
exit("XXI_Aprile_7_938", "74", 215).
enter("XXI_Aprile_7_938", "72[1]", 215).
exit("XXI_Aprile_7_938", "72[1]", 275).
enter("XXI_Aprile_7_938", "69", 275).
exit("XXI_Aprile_7_938", "69", 370).
enter("XXI_Aprile_7_938", "161", 370).
exit("XXI_Aprile_7_938", "161", 435).
enter("XXI_Aprile_7_938", "194", 435).
exit("XXI_Aprile_7_938", "194", 455).
enter("XXI_Aprile_7_938", "91", 455).
exit("XXI_Aprile_7_938", "91", 535).
enter("XXI_Aprile_7_938", "186", 535).
exit("XXI_Aprile_7_938", "186", 655).
enter("XXI_Aprile_7_938", "[109[0]|109[1][0]+20003|109[1][1]]", 655).
exit("XXI_Aprile_7_938", "[109[0]|109[1][0]+20003|109[1][1]]", 665).
enter("XXI_Aprile_7_938", "120", 665).
exit("XXI_Aprile_7_938", "120", 685).
enter("XXI_Aprile_7_938", "117", 685).
exit("XXI_Aprile_7_938", "117", 765).
enter("XXI_Aprile_7_938", "209", 765).
exit("XXI_Aprile_7_938", "209", 1060).
origin("Costa_200_1032", "122").
enter("Costa_200_1032", "122", 0).
exit("Costa_200_1032", "122", 100).
enter("Costa_200_1032", "1b", 100).
exit("Costa_200_1032", "1b", 160).
enter("Costa_200_1032", "1", 160).
exit("Costa_200_1032", "1", 195).
enter("Costa_200_1032", "204a[0]", 195).
exit("Costa_200_1032", "204a[0]", 315).
enter("Costa_200_1032", "204b[0]", 315).
exit("Costa_200_1032", "204b[0]", 320).
enter("Costa_200_1032", "204[1][0]", 320).
exit("Costa_200_1032", "204[1][0]", 355).
enter("Costa_200_1032", "204[1][1]", 355).
exit("Costa_200_1032", "204[1][1]", 390).
origin("Pepoli_11_2065", "43[1]").
enter("Pepoli_11_2065", "43[1]", 0).
exit("Pepoli_11_2065", "43[1]", 70).
enter("Pepoli_11_2065", "201", 70).
exit("Pepoli_11_2065", "201", 205).
enter("Pepoli_11_2065", "201c", 205).
exit("Pepoli_11_2065", "201c", 240).
enter("Pepoli_11_2065", "204a[0]", 240).
exit("Pepoli_11_2065", "204a[0]", 360).
enter("Pepoli_11_2065", "124", 360).
exit("Pepoli_11_2065", "124", 405).
origin("Pepoli_11_734", "201").
enter("Pepoli_11_734", "201", 0).
exit("Pepoli_11_734", "201", 135).
enter("Pepoli_11_734", "201c", 135).
exit("Pepoli_11_734", "201c", 170).
enter("Pepoli_11_734", "204a[0]", 170).
exit("Pepoli_11_734", "204a[0]", 290).
enter("Pepoli_11_734", "124", 290).
exit("Pepoli_11_734", "124", 335).
origin("Pepoli_11_1631", "201").
enter("Pepoli_11_1631", "201", 0).
exit("Pepoli_11_1631", "201", 135).
enter("Pepoli_11_1631", "201c", 135).
exit("Pepoli_11_1631", "201c", 170).
enter("Pepoli_11_1631", "204a[0]", 170).
exit("Pepoli_11_1631", "204a[0]", 290).
enter("Pepoli_11_1631", "124", 290).
exit("Pepoli_11_1631", "124", 335).
origin("Pepoli_11_1656", "201").
enter("Pepoli_11_1656", "201", 0).
exit("Pepoli_11_1656", "201", 135).
enter("Pepoli_11_1656", "201c", 135).
exit("Pepoli_11_1656", "201c", 170).
enter("Pepoli_11_1656", "204a[0]", 170).
exit("Pepoli_11_1656", "204a[0]", 290).
enter("Pepoli_11_1656", "124", 290).
exit("Pepoli_11_1656", "124", 335).
origin("Pepoli_11_2076", "201").
enter("Pepoli_11_2076", "201", 0).
exit("Pepoli_11_2076", "201", 135).
enter("Pepoli_11_2076", "201c", 135).
exit("Pepoli_11_2076", "201c", 170).
enter("Pepoli_11_2076", "204a[0]", 170).
exit("Pepoli_11_2076", "204a[0]", 290).
enter("Pepoli_11_2076", "124", 290).
exit("Pepoli_11_2076", "124", 335).
origin("Pepoli_11_176", "122").
enter("Pepoli_11_176", "122", 0).
exit("Pepoli_11_176", "122", 20).
enter("Pepoli_11_176", "1b", 20).
exit("Pepoli_11_176", "1b", 305).
enter("Pepoli_11_176", "1", 305).
exit("Pepoli_11_176", "1", 345).
enter("Pepoli_11_176", "204a[0]", 345).
exit("Pepoli_11_176", "204a[0]", 400).
enter("Pepoli_11_176", "124", 400).
exit("Pepoli_11_176", "124", 435).
origin("Pepoli_11_1936", "201").
enter("Pepoli_11_1936", "201", 0).
exit("Pepoli_11_1936", "201", 135).
enter("Pepoli_11_1936", "201c", 135).
exit("Pepoli_11_1936", "201c", 170).
enter("Pepoli_11_1936", "204a[0]", 170).
exit("Pepoli_11_1936", "204a[0]", 290).
enter("Pepoli_11_1936", "124", 290).
exit("Pepoli_11_1936", "124", 335).
origin("Audinot_10_135", "204[1][1]").
enter("Audinot_10_135", "204[1][1]", 0).
exit("Audinot_10_135", "204[1][1]", 200).
origin("XXI_Aprile_94_1001", "[22|59]").
enter("XXI_Aprile_94_1001", "[22|59]", 0).
exit("XXI_Aprile_94_1001", "[22|59]", 25).
enter("XXI_Aprile_94_1001", "(53cd|53[0])", 25).
exit("XXI_Aprile_94_1001", "(53cd|53[0])", 40).
enter("XXI_Aprile_94_1001", "78[1][1]", 40).
exit("XXI_Aprile_94_1001", "78[1][1]", 60).
enter("XXI_Aprile_94_1001", "[189[0]|189[1][0]+20000|189[1][1]]", 60).
exit("XXI_Aprile_94_1001", "[189[0]|189[1][0]+20000|189[1][1]]", 125).
enter("XXI_Aprile_94_1001", "191", 125).
exit("XXI_Aprile_94_1001", "191", 170).
enter("XXI_Aprile_94_1001", "69", 170).
exit("XXI_Aprile_94_1001", "69", 235).
enter("XXI_Aprile_94_1001", "161", 235).
exit("XXI_Aprile_94_1001", "161", 255).
enter("XXI_Aprile_94_1001", "122", 255).
exit("XXI_Aprile_94_1001", "122", 315).
enter("XXI_Aprile_94_1001", "1b", 315).
exit("XXI_Aprile_94_1001", "1b", 465).
enter("XXI_Aprile_94_1001", "1", 465).
exit("XXI_Aprile_94_1001", "1", 1565).
enter("XXI_Aprile_94_1001", "204a[0]", 1565).
exit("XXI_Aprile_94_1001", "204a[0]", 1665).
enter("XXI_Aprile_94_1001", "204b[0]", 1665).
exit("XXI_Aprile_94_1001", "204b[0]", 1840).
enter("XXI_Aprile_94_1001", "54", 1840).
exit("XXI_Aprile_94_1001", "54", 2110).
origin("Pepoli_11_1888", "204a[0]").
enter("Pepoli_11_1888", "204a[0]", 0).
exit("Pepoli_11_1888", "204a[0]", 120).
enter("Pepoli_11_1888", "124", 120).
exit("Pepoli_11_1888", "124", 165).
origin("XXI_Aprile_7_809", "120").
enter("XXI_Aprile_7_809", "120", 0).
exit("XXI_Aprile_7_809", "120", 35).
enter("XXI_Aprile_7_809", "117", 35).
exit("XXI_Aprile_7_809", "117", 90).
enter("XXI_Aprile_7_809", "209", 90).
exit("XXI_Aprile_7_809", "209", 160).
origin("Pepoli_12_1315", "159").
enter("Pepoli_12_1315", "159", 0).
exit("Pepoli_12_1315", "159", 55).
enter("Pepoli_12_1315", "42", 55).
exit("Pepoli_12_1315", "42", 85).
enter("Pepoli_12_1315", "39", 85).
exit("Pepoli_12_1315", "39", 100).
enter("Pepoli_12_1315", "35", 100).
exit("Pepoli_12_1315", "35", 135).
enter("Pepoli_12_1315", "38", 135).
exit("Pepoli_12_1315", "38", 225).
enter("Pepoli_12_1315", "15", 225).
exit("Pepoli_12_1315", "15", 280).
enter("Pepoli_12_1315", "24", 280).
exit("Pepoli_12_1315", "24", 305).
enter("Pepoli_12_1315", "[22|59]", 305).
exit("Pepoli_12_1315", "[22|59]", 320).
enter("Pepoli_12_1315", "(53cd|53[0])", 320).
exit("Pepoli_12_1315", "(53cd|53[0])", 415).
enter("Pepoli_12_1315", "78[1][1]", 415).
exit("Pepoli_12_1315", "78[1][1]", 510).
enter("Pepoli_12_1315", "[189[0]|189[1][0]+20000|189[1][1]]", 510).
exit("Pepoli_12_1315", "[189[0]|189[1][0]+20000|189[1][1]]", 560).
enter("Pepoli_12_1315", "191", 560).
exit("Pepoli_12_1315", "191", 710).
enter("Pepoli_12_1315", "[17|71]", 710).
exit("Pepoli_12_1315", "[17|71]", 815).
enter("Pepoli_12_1315", "84", 815).
exit("Pepoli_12_1315", "84", 845).
enter("Pepoli_12_1315", "180", 845).
exit("Pepoli_12_1315", "180", 865).
origin("XXI_Aprile_113_824", "161").
enter("XXI_Aprile_113_824", "161", 0).
exit("XXI_Aprile_113_824", "161", 140).
enter("XXI_Aprile_113_824", "122", 140).
exit("XXI_Aprile_113_824", "122", 1490).
enter("XXI_Aprile_113_824", "1b", 1490).
exit("XXI_Aprile_113_824", "1b", 2355).
enter("XXI_Aprile_113_824", "1", 2355).
exit("XXI_Aprile_113_824", "1", 2390).
enter("XXI_Aprile_113_824", "204a[0]", 2390).
exit("XXI_Aprile_113_824", "204a[0]", 2510).
enter("XXI_Aprile_113_824", "124", 2510).
exit("XXI_Aprile_113_824", "124", 2580).
origin("Togliatti_10_618", "85").
enter("Togliatti_10_618", "85", 0).
exit("Togliatti_10_618", "85", 110).
enter("Togliatti_10_618", "72[0]", 110).
exit("Togliatti_10_618", "72[0]", 185).
enter("Togliatti_10_618", "72[1]", 185).
exit("Togliatti_10_618", "72[1]", 225).
enter("Togliatti_10_618", "69", 225).
exit("Togliatti_10_618", "69", 320).
enter("Togliatti_10_618", "161", 320).
exit("Togliatti_10_618", "161", 370).
enter("Togliatti_10_618", "122", 370).
exit("Togliatti_10_618", "122", 425).
enter("Togliatti_10_618", "1b", 425).
exit("Togliatti_10_618", "1b", 485).
enter("Togliatti_10_618", "1", 485).
exit("Togliatti_10_618", "1", 520).
enter("Togliatti_10_618", "204a[0]", 520).
exit("Togliatti_10_618", "204a[0]", 640).
enter("Togliatti_10_618", "204b[0]", 640).
exit("Togliatti_10_618", "204b[0]", 645).
enter("Togliatti_10_618", "204[1][0]", 645).
exit("Togliatti_10_618", "204[1][0]", 680).
enter("Togliatti_10_618", "204[1][1]", 680).
exit("Togliatti_10_618", "204[1][1]", 715).
origin("Vittorio_Veneto_10_448", "161").
enter("Vittorio_Veneto_10_448", "161", 0).
exit("Vittorio_Veneto_10_448", "161", 50).
enter("Vittorio_Veneto_10_448", "122", 50).
exit("Vittorio_Veneto_10_448", "122", 150).
enter("Vittorio_Veneto_10_448", "1b", 150).
exit("Vittorio_Veneto_10_448", "1b", 210).
enter("Vittorio_Veneto_10_448", "1", 210).
exit("Vittorio_Veneto_10_448", "1", 245).
enter("Vittorio_Veneto_10_448", "204a[0]", 245).
exit("Vittorio_Veneto_10_448", "204a[0]", 365).
enter("Vittorio_Veneto_10_448", "204b[0]", 365).
exit("Vittorio_Veneto_10_448", "204b[0]", 370).
enter("Vittorio_Veneto_10_448", "204[1][0]", 370).
exit("Vittorio_Veneto_10_448", "204[1][0]", 405).
enter("Vittorio_Veneto_10_448", "204[1][1]", 405).
exit("Vittorio_Veneto_10_448", "204[1][1]", 510).
origin("Vittorio_Veneto_1_550", "86").
enter("Vittorio_Veneto_1_550", "86", 0).
exit("Vittorio_Veneto_1_550", "86", 30).
origin("Pepoli_11_2078", "201").
enter("Pepoli_11_2078", "201", 0).
exit("Pepoli_11_2078", "201", 135).
enter("Pepoli_11_2078", "201c", 135).
exit("Pepoli_11_2078", "201c", 170).
enter("Pepoli_11_2078", "204a[0]", 170).
exit("Pepoli_11_2078", "204a[0]", 290).
enter("Pepoli_11_2078", "124", 290).
exit("Pepoli_11_2078", "124", 335).
origin("XXI_Aprile_2_995", "[22|59]").
enter("XXI_Aprile_2_995", "[22|59]", 0).
exit("XXI_Aprile_2_995", "[22|59]", 15).
enter("XXI_Aprile_2_995", "(53cd|53[0]|53[1][0]|53[1][1][0]|77[1][0])", 15).
exit("XXI_Aprile_2_995", "(53cd|53[0]|53[1][0]|53[1][1][0]|77[1][0])", 20).
enter("XXI_Aprile_2_995", "77[1][1]", 20).
exit("XXI_Aprile_2_995", "77[1][1]", 60).
origin("Togliatti_10_649", "85").
enter("Togliatti_10_649", "85", 0).
exit("Togliatti_10_649", "85", 110).
enter("Togliatti_10_649", "72[0]", 110).
exit("Togliatti_10_649", "72[0]", 185).
enter("Togliatti_10_649", "72[1]", 185).
exit("Togliatti_10_649", "72[1]", 225).
enter("Togliatti_10_649", "69", 225).
exit("Togliatti_10_649", "69", 320).
enter("Togliatti_10_649", "161", 320).
exit("Togliatti_10_649", "161", 370).
enter("Togliatti_10_649", "122", 370).
exit("Togliatti_10_649", "122", 470).
enter("Togliatti_10_649", "1b", 470).
exit("Togliatti_10_649", "1b", 530).
enter("Togliatti_10_649", "1", 530).
exit("Togliatti_10_649", "1", 565).
enter("Togliatti_10_649", "204a[0]", 565).
exit("Togliatti_10_649", "204a[0]", 685).
enter("Togliatti_10_649", "204b[0]", 685).
exit("Togliatti_10_649", "204b[0]", 690).
enter("Togliatti_10_649", "204[1][0]", 690).
exit("Togliatti_10_649", "204[1][0]", 725).
enter("Togliatti_10_649", "204[1][1]", 725).
exit("Togliatti_10_649", "204[1][1]", 925).
origin("Togliatti_10_356", "204a[0]").
enter("Togliatti_10_356", "204a[0]", 0).
exit("Togliatti_10_356", "204a[0]", 205).
enter("Togliatti_10_356", "204b[0]", 205).
exit("Togliatti_10_356", "204b[0]", 300).
enter("Togliatti_10_356", "204[1][0]", 300).
exit("Togliatti_10_356", "204[1][0]", 450).
enter("Togliatti_10_356", "204[1][1]", 450).
exit("Togliatti_10_356", "204[1][1]", 520).
origin("Costa_200_1007", "122").
enter("Costa_200_1007", "122", 0).
exit("Costa_200_1007", "122", 100).
enter("Costa_200_1007", "1b", 100).
exit("Costa_200_1007", "1b", 160).
enter("Costa_200_1007", "1", 160).
exit("Costa_200_1007", "1", 195).
enter("Costa_200_1007", "204a[0]", 195).
exit("Costa_200_1007", "204a[0]", 315).
enter("Costa_200_1007", "204b[0]", 315).
exit("Costa_200_1007", "204b[0]", 320).
enter("Costa_200_1007", "204[1][0]", 320).
exit("Costa_200_1007", "204[1][0]", 355).
enter("Costa_200_1007", "204[1][1]", 355).
exit("Costa_200_1007", "204[1][1]", 390).
origin("Pepoli_3_1411", "65").
enter("Pepoli_3_1411", "65", 0).
exit("Pepoli_3_1411", "65", 40).
enter("Pepoli_3_1411", "57[0]", 40).
exit("Pepoli_3_1411", "57[0]", 75).
enter("Pepoli_3_1411", "57[1]", 75).
exit("Pepoli_3_1411", "57[1]", 115).
enter("Pepoli_3_1411", "62", 115).
exit("Pepoli_3_1411", "62", 235).
enter("Pepoli_3_1411", "159", 235).
exit("Pepoli_3_1411", "159", 290).
enter("Pepoli_3_1411", "42", 290).
exit("Pepoli_3_1411", "42", 345).
enter("Pepoli_3_1411", "39", 345).
exit("Pepoli_3_1411", "39", 350).
enter("Pepoli_3_1411", "35", 350).
exit("Pepoli_3_1411", "35", 420).
enter("Pepoli_3_1411", "38", 420).
exit("Pepoli_3_1411", "38", 450).
enter("Pepoli_3_1411", "15", 450).
exit("Pepoli_3_1411", "15", 490).
enter("Pepoli_3_1411", "14", 490).
exit("Pepoli_3_1411", "14", 500).
origin("Pepoli_11_1834", "201").
enter("Pepoli_11_1834", "201", 0).
exit("Pepoli_11_1834", "201", 135).
enter("Pepoli_11_1834", "201c", 135).
exit("Pepoli_11_1834", "201c", 170).
enter("Pepoli_11_1834", "204a[0]", 170).
exit("Pepoli_11_1834", "204a[0]", 290).
enter("Pepoli_11_1834", "124", 290).
exit("Pepoli_11_1834", "124", 335).
origin("Togliatti_10_483", "204[1][1]").
enter("Togliatti_10_483", "204[1][1]", 0).
exit("Togliatti_10_483", "204[1][1]", 35).
origin("Pepoli_11_1836", "43[1]").
enter("Pepoli_11_1836", "43[1]", 0).
exit("Pepoli_11_1836", "43[1]", 70).
enter("Pepoli_11_1836", "201", 70).
exit("Pepoli_11_1836", "201", 205).
enter("Pepoli_11_1836", "201c", 205).
exit("Pepoli_11_1836", "201c", 240).
enter("Pepoli_11_1836", "204a[0]", 240).
exit("Pepoli_11_1836", "204a[0]", 360).
enter("Pepoli_11_1836", "124", 360).
exit("Pepoli_11_1836", "124", 405).
origin("Vittorio_Veneto_73_588", "224[1]").
enter("Vittorio_Veneto_73_588", "224[1]", 0).
exit("Vittorio_Veneto_73_588", "224[1]", 60).
enter("Vittorio_Veneto_73_588", "[181|18]", 60).
exit("Vittorio_Veneto_73_588", "[181|18]", 135).
enter("Vittorio_Veneto_73_588", "69", 135).
exit("Vittorio_Veneto_73_588", "69", 230).
enter("Vittorio_Veneto_73_588", "161", 230).
exit("Vittorio_Veneto_73_588", "161", 280).
enter("Vittorio_Veneto_73_588", "122", 280).
exit("Vittorio_Veneto_73_588", "122", 335).
enter("Vittorio_Veneto_73_588", "[3|2]", 335).
exit("Vittorio_Veneto_73_588", "[3|2]", 370).
enter("Vittorio_Veneto_73_588", "[202|34]", 370).
exit("Vittorio_Veneto_73_588", "[202|34]", 420).
enter("Vittorio_Veneto_73_588", "113", 420).
exit("Vittorio_Veneto_73_588", "113", 470).
enter("Vittorio_Veneto_73_588", "209", 470).
exit("Vittorio_Veneto_73_588", "209", 505).
origin("Vittorio_Veneto_1_650", "224[0]").
enter("Vittorio_Veneto_1_650", "224[0]", 0).
exit("Vittorio_Veneto_1_650", "224[0]", 80).
enter("Vittorio_Veneto_1_650", "224[1]", 80).
exit("Vittorio_Veneto_1_650", "224[1]", 135).
enter("Vittorio_Veneto_1_650", "[181|18]", 135).
exit("Vittorio_Veneto_1_650", "[181|18]", 210).
enter("Vittorio_Veneto_1_650", "[17|71]", 210).
exit("Vittorio_Veneto_1_650", "[17|71]", 265).
enter("Vittorio_Veneto_1_650", "86", 265).
exit("Vittorio_Veneto_1_650", "86", 295).
origin("Pepoli_3_1008", "15").
enter("Pepoli_3_1008", "15", 0).
exit("Pepoli_3_1008", "15", 75).
enter("Pepoli_3_1008", "14", 75).
exit("Pepoli_3_1008", "14", 115).
origin("XXI_Aprile_7_845", "74").
enter("XXI_Aprile_7_845", "74", 0).
exit("XXI_Aprile_7_845", "74", 200).
enter("XXI_Aprile_7_845", "72[1]", 200).
exit("XXI_Aprile_7_845", "72[1]", 250).
enter("XXI_Aprile_7_845", "69", 250).
exit("XXI_Aprile_7_845", "69", 310).
enter("XXI_Aprile_7_845", "161", 310).
exit("XXI_Aprile_7_845", "161", 330).
enter("XXI_Aprile_7_845", "194", 330).
exit("XXI_Aprile_7_845", "194", 380).
enter("XXI_Aprile_7_845", "91", 380).
exit("XXI_Aprile_7_845", "91", 390).
enter("XXI_Aprile_7_845", "186", 390).
exit("XXI_Aprile_7_845", "186", 395).
enter("XXI_Aprile_7_845", "[109[0]|109[1][0]+20003|109[1][1]]", 395).
exit("XXI_Aprile_7_845", "[109[0]|109[1][0]+20003|109[1][1]]", 405).
enter("XXI_Aprile_7_845", "120", 405).
exit("XXI_Aprile_7_845", "120", 440).
enter("XXI_Aprile_7_845", "117", 440).
exit("XXI_Aprile_7_845", "117", 545).
enter("XXI_Aprile_7_845", "209", 545).
exit("XXI_Aprile_7_845", "209", 975).
origin("Vittorio_Veneto_2_637", "224[0]").
enter("Vittorio_Veneto_2_637", "224[0]", 0).
exit("Vittorio_Veneto_2_637", "224[0]", 80).
enter("Vittorio_Veneto_2_637", "224[1]", 80).
exit("Vittorio_Veneto_2_637", "224[1]", 135).
enter("Vittorio_Veneto_2_637", "[181|18]", 135).
exit("Vittorio_Veneto_2_637", "[181|18]", 195).
enter("Vittorio_Veneto_2_637", "[17|71]", 195).
exit("Vittorio_Veneto_2_637", "[17|71]", 245).
enter("Vittorio_Veneto_2_637", "67", 245).
exit("Vittorio_Veneto_2_637", "67", 260).
enter("Vittorio_Veneto_2_637", "[80|127]", 260).
exit("Vittorio_Veneto_2_637", "[80|127]", 275).
enter("Vittorio_Veneto_2_637", "(77[1][0])", 275).
exit("Vittorio_Veneto_2_637", "(77[1][0])", 290).
enter("Vittorio_Veneto_2_637", "77[1][1]", 290).
exit("Vittorio_Veneto_2_637", "77[1][1]", 330).
origin("Pepoli_2_962", "19").
enter("Pepoli_2_962", "19", 0).
exit("Pepoli_2_962", "19", 35).
enter("Pepoli_2_962", "[22|59]", 35).
exit("Pepoli_2_962", "[22|59]", 105).
enter("Pepoli_2_962", "(53cd|53[0]|53[1][0]|53[1][1][0]|77[1][0])", 105).
exit("Pepoli_2_962", "(53cd|53[0]|53[1][0]|53[1][1][0]|77[1][0])", 110).
enter("Pepoli_2_962", "77[1][1]", 110).
exit("Pepoli_2_962", "77[1][1]", 170).
origin("Audinot_12_161", "131").
enter("Audinot_12_161", "131", 0).
exit("Audinot_12_161", "131", 80).
enter("Audinot_12_161", "65", 80).
exit("Audinot_12_161", "65", 125).
enter("Audinot_12_161", "57[0]", 125).
exit("Audinot_12_161", "57[0]", 210).
enter("Audinot_12_161", "57[1]", 210).
exit("Audinot_12_161", "57[1]", 225).
enter("Audinot_12_161", "62", 225).
exit("Audinot_12_161", "62", 315).
enter("Audinot_12_161", "159", 315).
exit("Audinot_12_161", "159", 420).
enter("Audinot_12_161", "42", 420).
exit("Audinot_12_161", "42", 440).
enter("Audinot_12_161", "39", 440).
exit("Audinot_12_161", "39", 460).
enter("Audinot_12_161", "35", 460).
exit("Audinot_12_161", "35", 515).
enter("Audinot_12_161", "38", 515).
exit("Audinot_12_161", "38", 575).
enter("Audinot_12_161", "50", 575).
exit("Audinot_12_161", "50", 635).
enter("Audinot_12_161", "19", 635).
exit("Audinot_12_161", "19", 670).
enter("Audinot_12_161", "[22|59]", 670).
exit("Audinot_12_161", "[22|59]", 740).
enter("Audinot_12_161", "(53cd|53[0]|53[1][0])", 740).
exit("Audinot_12_161", "(53cd|53[0]|53[1][0])", 760).
enter("Audinot_12_161", "79", 760).
exit("Audinot_12_161", "79", 830).
enter("Audinot_12_161", "[68|11]", 830).
exit("Audinot_12_161", "[68|11]", 910).
enter("Audinot_12_161", "84", 910).
exit("Audinot_12_161", "84", 930).
enter("Audinot_12_161", "180", 930).
exit("Audinot_12_161", "180", 1025).
origin("Pepoli_11_1824", "201").
enter("Pepoli_11_1824", "201", 0).
exit("Pepoli_11_1824", "201", 135).
enter("Pepoli_11_1824", "201c", 135).
exit("Pepoli_11_1824", "201c", 170).
enter("Pepoli_11_1824", "204a[0]", 170).
exit("Pepoli_11_1824", "204a[0]", 290).
enter("Pepoli_11_1824", "124", 290).
exit("Pepoli_11_1824", "124", 335).
origin("Togliatti_80_669", "85").
enter("Togliatti_80_669", "85", 0).
exit("Togliatti_80_669", "85", 60).
enter("Togliatti_80_669", "72[0]", 60).
exit("Togliatti_80_669", "72[0]", 135).
enter("Togliatti_80_669", "72[1]", 135).
exit("Togliatti_80_669", "72[1]", 175).
enter("Togliatti_80_669", "69", 175).
exit("Togliatti_80_669", "69", 270).
enter("Togliatti_80_669", "161", 270).
exit("Togliatti_80_669", "161", 320).
enter("Togliatti_80_669", "122", 320).
exit("Togliatti_80_669", "122", 420).
enter("Togliatti_80_669", "[3|2]", 420).
exit("Togliatti_80_669", "[3|2]", 460).
enter("Togliatti_80_669", "[202|34]", 460).
exit("Togliatti_80_669", "[202|34]", 595).
enter("Togliatti_80_669", "134", 595).
exit("Togliatti_80_669", "134", 605).
origin("Vittorio_Veneto_10_668", "224[0]").
enter("Vittorio_Veneto_10_668", "224[0]", 0).
exit("Vittorio_Veneto_10_668", "224[0]", 140).
enter("Vittorio_Veneto_10_668", "224[1]", 140).
exit("Vittorio_Veneto_10_668", "224[1]", 200).
enter("Vittorio_Veneto_10_668", "[181|18]", 200).
exit("Vittorio_Veneto_10_668", "[181|18]", 275).
enter("Vittorio_Veneto_10_668", "69", 275).
exit("Vittorio_Veneto_10_668", "69", 370).
enter("Vittorio_Veneto_10_668", "161", 370).
exit("Vittorio_Veneto_10_668", "161", 395).
enter("Vittorio_Veneto_10_668", "122", 395).
exit("Vittorio_Veneto_10_668", "122", 495).
enter("Vittorio_Veneto_10_668", "1b", 495).
exit("Vittorio_Veneto_10_668", "1b", 555).
enter("Vittorio_Veneto_10_668", "1", 555).
exit("Vittorio_Veneto_10_668", "1", 590).
enter("Vittorio_Veneto_10_668", "204a[0]", 590).
exit("Vittorio_Veneto_10_668", "204a[0]", 710).
enter("Vittorio_Veneto_10_668", "204b[0]", 710).
exit("Vittorio_Veneto_10_668", "204b[0]", 715).
enter("Vittorio_Veneto_10_668", "204[1][0]", 715).
exit("Vittorio_Veneto_10_668", "204[1][0]", 750).
enter("Vittorio_Veneto_10_668", "204[1][1]", 750).
exit("Vittorio_Veneto_10_668", "204[1][1]", 785).
origin("Vittorio_Veneto_2_658", "224[0]").
enter("Vittorio_Veneto_2_658", "224[0]", 0).
exit("Vittorio_Veneto_2_658", "224[0]", 140).
enter("Vittorio_Veneto_2_658", "224[1]", 140).
exit("Vittorio_Veneto_2_658", "224[1]", 200).
enter("Vittorio_Veneto_2_658", "[181|18]", 200).
exit("Vittorio_Veneto_2_658", "[181|18]", 275).
enter("Vittorio_Veneto_2_658", "[17|71]", 275).
exit("Vittorio_Veneto_2_658", "[17|71]", 330).
enter("Vittorio_Veneto_2_658", "67", 330).
exit("Vittorio_Veneto_2_658", "67", 340).
enter("Vittorio_Veneto_2_658", "[80|127]", 340).
exit("Vittorio_Veneto_2_658", "[80|127]", 360).
enter("Vittorio_Veneto_2_658", "(77[1][0])", 360).
exit("Vittorio_Veneto_2_658", "(77[1][0])", 380).
enter("Vittorio_Veneto_2_658", "77[1][1]", 380).
exit("Vittorio_Veneto_2_658", "77[1][1]", 420).
origin("Vittorio_Veneto_73_667", "224[0]").
enter("Vittorio_Veneto_73_667", "224[0]", 0).
exit("Vittorio_Veneto_73_667", "224[0]", 140).
enter("Vittorio_Veneto_73_667", "224[1]", 140).
exit("Vittorio_Veneto_73_667", "224[1]", 200).
enter("Vittorio_Veneto_73_667", "[181|18]", 200).
exit("Vittorio_Veneto_73_667", "[181|18]", 275).
enter("Vittorio_Veneto_73_667", "69", 275).
exit("Vittorio_Veneto_73_667", "69", 370).
enter("Vittorio_Veneto_73_667", "161", 370).
exit("Vittorio_Veneto_73_667", "161", 395).
enter("Vittorio_Veneto_73_667", "122", 395).
exit("Vittorio_Veneto_73_667", "122", 495).
enter("Vittorio_Veneto_73_667", "[3|2]", 495).
exit("Vittorio_Veneto_73_667", "[3|2]", 530).
enter("Vittorio_Veneto_73_667", "[202|34]", 530).
exit("Vittorio_Veneto_73_667", "[202|34]", 580).
enter("Vittorio_Veneto_73_667", "113", 580).
exit("Vittorio_Veneto_73_667", "113", 630).
enter("Vittorio_Veneto_73_667", "209", 630).
exit("Vittorio_Veneto_73_667", "209", 665).
origin("Pepoli_3_1357", "159").
enter("Pepoli_3_1357", "159", 0).
exit("Pepoli_3_1357", "159", 70).
enter("Pepoli_3_1357", "42", 70).
exit("Pepoli_3_1357", "42", 85).
enter("Pepoli_3_1357", "39", 85).
exit("Pepoli_3_1357", "39", 125).
enter("Pepoli_3_1357", "35", 125).
exit("Pepoli_3_1357", "35", 180).
enter("Pepoli_3_1357", "38", 180).
exit("Pepoli_3_1357", "38", 205).
enter("Pepoli_3_1357", "33", 205).
exit("Pepoli_3_1357", "33", 215).
enter("Pepoli_3_1357", "10", 215).
exit("Pepoli_3_1357", "10", 280).
origin("Pepoli_3_1156", "35").
enter("Pepoli_3_1156", "35", 0).
exit("Pepoli_3_1156", "35", 55).
enter("Pepoli_3_1156", "38", 55).
exit("Pepoli_3_1156", "38", 115).
enter("Pepoli_3_1156", "15", 115).
exit("Pepoli_3_1156", "15", 190).
enter("Pepoli_3_1156", "14", 190).
exit("Pepoli_3_1156", "14", 230).
origin("Pepoli_3_1362", "159").
enter("Pepoli_3_1362", "159", 0).
exit("Pepoli_3_1362", "159", 40).
enter("Pepoli_3_1362", "42", 40).
exit("Pepoli_3_1362", "42", 70).
enter("Pepoli_3_1362", "39", 70).
exit("Pepoli_3_1362", "39", 125).
enter("Pepoli_3_1362", "35", 125).
exit("Pepoli_3_1362", "35", 180).
enter("Pepoli_3_1362", "38", 180).
exit("Pepoli_3_1362", "38", 205).
enter("Pepoli_3_1362", "33", 205).
exit("Pepoli_3_1362", "33", 290).
enter("Pepoli_3_1362", "10", 290).
exit("Pepoli_3_1362", "10", 335).
origin("Togliatti_10_721", "[181|18]").
enter("Togliatti_10_721", "[181|18]", 0).
exit("Togliatti_10_721", "[181|18]", 120).
enter("Togliatti_10_721", "69", 120).
exit("Togliatti_10_721", "69", 210).
enter("Togliatti_10_721", "161", 210).
exit("Togliatti_10_721", "161", 260).
enter("Togliatti_10_721", "122", 260).
exit("Togliatti_10_721", "122", 810).
enter("Togliatti_10_721", "1b", 810).
exit("Togliatti_10_721", "1b", 1530).
enter("Togliatti_10_721", "1", 1530).
exit("Togliatti_10_721", "1", 2115).
enter("Togliatti_10_721", "204a[0]", 2115).
exit("Togliatti_10_721", "204a[0]", 2235).
enter("Togliatti_10_721", "204b[0]", 2235).
exit("Togliatti_10_721", "204b[0]", 2240).
enter("Togliatti_10_721", "204[1][0]", 2240).
exit("Togliatti_10_721", "204[1][0]", 2315).
enter("Togliatti_10_721", "204[1][1]", 2315).
exit("Togliatti_10_721", "204[1][1]", 2880).
origin("Pepoli_2_1438", "65").
enter("Pepoli_2_1438", "65", 0).
exit("Pepoli_2_1438", "65", 25).
enter("Pepoli_2_1438", "57[0]", 25).
exit("Pepoli_2_1438", "57[0]", 60).
enter("Pepoli_2_1438", "57[1]", 60).
exit("Pepoli_2_1438", "57[1]", 85).
enter("Pepoli_2_1438", "62", 85).
exit("Pepoli_2_1438", "62", 115).
enter("Pepoli_2_1438", "159", 115).
exit("Pepoli_2_1438", "159", 195).
enter("Pepoli_2_1438", "42", 195).
exit("Pepoli_2_1438", "42", 215).
enter("Pepoli_2_1438", "39", 215).
exit("Pepoli_2_1438", "39", 320).
enter("Pepoli_2_1438", "35", 320).
exit("Pepoli_2_1438", "35", 395).
enter("Pepoli_2_1438", "38", 395).
exit("Pepoli_2_1438", "38", 455).
enter("Pepoli_2_1438", "15", 455).
exit("Pepoli_2_1438", "15", 515).
enter("Pepoli_2_1438", "24", 515).
exit("Pepoli_2_1438", "24", 530).
enter("Pepoli_2_1438", "[22|59]", 530).
exit("Pepoli_2_1438", "[22|59]", 550).
enter("Pepoli_2_1438", "(53cd|53[0]|53[1][0]|53[1][1][0]|77[1][0])", 550).
exit("Pepoli_2_1438", "(53cd|53[0]|53[1][0]|53[1][1][0]|77[1][0])", 610).
enter("Pepoli_2_1438", "77[1][1]", 610).
exit("Pepoli_2_1438", "77[1][1]", 650).
origin("Pepoli_3_1050", "15").
enter("Pepoli_3_1050", "15", 0).
exit("Pepoli_3_1050", "15", 75).
enter("Pepoli_3_1050", "14", 75).
exit("Pepoli_3_1050", "14", 115).
origin("XXI_Aprile_113_678", "204a[0]").
enter("XXI_Aprile_113_678", "204a[0]", 0).
exit("XXI_Aprile_113_678", "204a[0]", 60).
enter("XXI_Aprile_113_678", "124", 60).
exit("XXI_Aprile_113_678", "124", 455).
origin("Audinot_9_167", "131").
enter("Audinot_9_167", "131", 0).
exit("Audinot_9_167", "131", 80).
enter("Audinot_9_167", "119", 80).
exit("Audinot_9_167", "119", 95).
enter("Audinot_9_167", "[116|46]", 95).
exit("Audinot_9_167", "[116|46]", 190).
enter("Audinot_9_167", "201", 190).
exit("Audinot_9_167", "201", 325).
enter("Audinot_9_167", "201c", 325).
exit("Audinot_9_167", "201c", 360).
enter("Audinot_9_167", "204a[0]", 360).
exit("Audinot_9_167", "204a[0]", 480).
enter("Audinot_9_167", "204b[0]", 480).
exit("Audinot_9_167", "204b[0]", 485).
enter("Audinot_9_167", "54", 485).
exit("Audinot_9_167", "54", 510).
origin("Togliatti_5_704", "85").
enter("Togliatti_5_704", "85", 0).
exit("Togliatti_5_704", "85", 60).
enter("Togliatti_5_704", "72[0]", 60).
exit("Togliatti_5_704", "72[0]", 135).
enter("Togliatti_5_704", "72[1]", 135).
exit("Togliatti_5_704", "72[1]", 175).
enter("Togliatti_5_704", "69", 175).
exit("Togliatti_5_704", "69", 270).
enter("Togliatti_5_704", "161", 270).
exit("Togliatti_5_704", "161", 320).
enter("Togliatti_5_704", "194", 320).
exit("Togliatti_5_704", "194", 335).
enter("Togliatti_5_704", "91", 335).
exit("Togliatti_5_704", "91", 355).
enter("Togliatti_5_704", "186", 355).
exit("Togliatti_5_704", "186", 385).
enter("Togliatti_5_704", "[109[0]|109[1][0]+20003|109[1][1]]", 385).
exit("Togliatti_5_704", "[109[0]|109[1][0]+20003|109[1][1]]", 420).
enter("Togliatti_5_704", "120", 420).
exit("Togliatti_5_704", "120", 495).
enter("Togliatti_5_704", "65", 495).
exit("Togliatti_5_704", "65", 540).
enter("Togliatti_5_704", "[200|60]", 540).
exit("Togliatti_5_704", "[200|60]", 675).
origin("Vittorio_Veneto_10_510", "69").
enter("Vittorio_Veneto_10_510", "69", 0).
exit("Vittorio_Veneto_10_510", "69", 95).
enter("Vittorio_Veneto_10_510", "161", 95).
exit("Vittorio_Veneto_10_510", "161", 145).
enter("Vittorio_Veneto_10_510", "122", 145).
exit("Vittorio_Veneto_10_510", "122", 245).
enter("Vittorio_Veneto_10_510", "1b", 245).
exit("Vittorio_Veneto_10_510", "1b", 305).
enter("Vittorio_Veneto_10_510", "1", 305).
exit("Vittorio_Veneto_10_510", "1", 340).
enter("Vittorio_Veneto_10_510", "204a[0]", 340).
exit("Vittorio_Veneto_10_510", "204a[0]", 460).
enter("Vittorio_Veneto_10_510", "204b[0]", 460).
exit("Vittorio_Veneto_10_510", "204b[0]", 465).
enter("Vittorio_Veneto_10_510", "204[1][0]", 465).
exit("Vittorio_Veneto_10_510", "204[1][0]", 500).
enter("Vittorio_Veneto_10_510", "204[1][1]", 500).
exit("Vittorio_Veneto_10_510", "204[1][1]", 555).
origin("XXI_Aprile_7_769", "186").
enter("XXI_Aprile_7_769", "186", 0).
exit("XXI_Aprile_7_769", "186", 30).
enter("XXI_Aprile_7_769", "[109[0]|109[1][0]+20003|109[1][1]]", 30).
exit("XXI_Aprile_7_769", "[109[0]|109[1][0]+20003|109[1][1]]", 65).
enter("XXI_Aprile_7_769", "[116|46]", 65).
exit("XXI_Aprile_7_769", "[116|46]", 130).
enter("XXI_Aprile_7_769", "113", 130).
exit("XXI_Aprile_7_769", "113", 180).
enter("XXI_Aprile_7_769", "209", 180).
exit("XXI_Aprile_7_769", "209", 280).
origin("Vittorio_Veneto_3_568", "[181|18]").
enter("Vittorio_Veneto_3_568", "[181|18]", 0).
exit("Vittorio_Veneto_3_568", "[181|18]", 60).
enter("Vittorio_Veneto_3_568", "[17|71]", 60).
exit("Vittorio_Veneto_3_568", "[17|71]", 130).
enter("Vittorio_Veneto_3_568", "67", 130).
exit("Vittorio_Veneto_3_568", "67", 140).
enter("Vittorio_Veneto_3_568", "[80|127]", 140).
exit("Vittorio_Veneto_3_568", "[80|127]", 160).
enter("Vittorio_Veneto_3_568", "(77[1][0]|77ab|77bc|77cd|53cd|53[0])", 160).
exit("Vittorio_Veneto_3_568", "(77[1][0]|77ab|77bc|77cd|53cd|53[0])", 170).
enter("Vittorio_Veneto_3_568", "78[1][1]", 170).
exit("Vittorio_Veneto_3_568", "78[1][1]", 180).
enter("Vittorio_Veneto_3_568", "75", 180).
exit("Vittorio_Veneto_3_568", "75", 190).
enter("Vittorio_Veneto_3_568", "51", 190).
exit("Vittorio_Veneto_3_568", "51", 200).
enter("Vittorio_Veneto_3_568", "19", 200).
exit("Vittorio_Veneto_3_568", "19", 210).
enter("Vittorio_Veneto_3_568", "103", 210).
exit("Vittorio_Veneto_3_568", "103", 270).
enter("Vittorio_Veneto_3_568", "14", 270).
exit("Vittorio_Veneto_3_568", "14", 280).
origin("XXI_Aprile_7_945", "74").
enter("XXI_Aprile_7_945", "74", 0).
exit("XXI_Aprile_7_945", "74", 135).
enter("XXI_Aprile_7_945", "72[1]", 135).
exit("XXI_Aprile_7_945", "72[1]", 195).
enter("XXI_Aprile_7_945", "69", 195).
exit("XXI_Aprile_7_945", "69", 240).
enter("XXI_Aprile_7_945", "161", 240).
exit("XXI_Aprile_7_945", "161", 260).
enter("XXI_Aprile_7_945", "122", 260).
exit("XXI_Aprile_7_945", "122", 295).
enter("XXI_Aprile_7_945", "[3|2]", 295).
exit("XXI_Aprile_7_945", "[3|2]", 335).
enter("XXI_Aprile_7_945", "[202|34]", 335).
exit("XXI_Aprile_7_945", "[202|34]", 385).
enter("XXI_Aprile_7_945", "113", 385).
exit("XXI_Aprile_7_945", "113", 685).
enter("XXI_Aprile_7_945", "209", 685).
exit("XXI_Aprile_7_945", "209", 1060).
origin("XXI_Aprile_94_693", "201").
enter("XXI_Aprile_94_693", "201", 0).
exit("XXI_Aprile_94_693", "201", 900).
enter("XXI_Aprile_94_693", "201c", 900).
exit("XXI_Aprile_94_693", "201c", 935).
enter("XXI_Aprile_94_693", "204a[0]", 935).
exit("XXI_Aprile_94_693", "204a[0]", 1055).
enter("XXI_Aprile_94_693", "204b[0]", 1055).
exit("XXI_Aprile_94_693", "204b[0]", 1060).
enter("XXI_Aprile_94_693", "54", 1060).
exit("XXI_Aprile_94_693", "54", 1130).
origin("XXI_Aprile_7_977", "58[0]").
enter("XXI_Aprile_7_977", "58[0]", 0).
exit("XXI_Aprile_7_977", "58[0]", 10).
enter("XXI_Aprile_7_977", "58[1]", 10).
exit("XXI_Aprile_7_977", "58[1]", 25).
enter("XXI_Aprile_7_977", "66", 25).
exit("XXI_Aprile_7_977", "66", 35).
enter("XXI_Aprile_7_977", "117", 35).
exit("XXI_Aprile_7_977", "117", 100).
enter("XXI_Aprile_7_977", "209", 100).
exit("XXI_Aprile_7_977", "209", 135).
origin("XXI_Aprile_92_584", "161").
enter("XXI_Aprile_92_584", "161", 0).
exit("XXI_Aprile_92_584", "161", 90).
enter("XXI_Aprile_92_584", "122", 90).
exit("XXI_Aprile_92_584", "122", 190).
enter("XXI_Aprile_92_584", "1b", 190).
exit("XXI_Aprile_92_584", "1b", 250).
enter("XXI_Aprile_92_584", "1", 250).
exit("XXI_Aprile_92_584", "1", 285).
enter("XXI_Aprile_92_584", "204a[0]", 285).
exit("XXI_Aprile_92_584", "204a[0]", 405).
enter("XXI_Aprile_92_584", "204b[0]", 405).
exit("XXI_Aprile_92_584", "204b[0]", 410).
enter("XXI_Aprile_92_584", "54", 410).
exit("XXI_Aprile_92_584", "54", 435).
origin("XXI_Aprile_7_703", "209").
enter("XXI_Aprile_7_703", "209", 0).
exit("XXI_Aprile_7_703", "209", 50).
origin("Vittorio_Veneto_2_659", "224[0]").
enter("Vittorio_Veneto_2_659", "224[0]", 0).
exit("Vittorio_Veneto_2_659", "224[0]", 140).
enter("Vittorio_Veneto_2_659", "224[1]", 140).
exit("Vittorio_Veneto_2_659", "224[1]", 200).
enter("Vittorio_Veneto_2_659", "[181|18]", 200).
exit("Vittorio_Veneto_2_659", "[181|18]", 275).
enter("Vittorio_Veneto_2_659", "[17|71]", 275).
exit("Vittorio_Veneto_2_659", "[17|71]", 330).
enter("Vittorio_Veneto_2_659", "67", 330).
exit("Vittorio_Veneto_2_659", "67", 345).
enter("Vittorio_Veneto_2_659", "[80|127]", 345).
exit("Vittorio_Veneto_2_659", "[80|127]", 365).
enter("Vittorio_Veneto_2_659", "(77[1][0])", 365).
exit("Vittorio_Veneto_2_659", "(77[1][0])", 385).
enter("Vittorio_Veneto_2_659", "77[1][1]", 385).
exit("Vittorio_Veneto_2_659", "77[1][1]", 425).
origin("Vittorio_Veneto_2_560", "[17|71]").
enter("Vittorio_Veneto_2_560", "[17|71]", 0).
exit("Vittorio_Veneto_2_560", "[17|71]", 55).
enter("Vittorio_Veneto_2_560", "67", 55).
exit("Vittorio_Veneto_2_560", "67", 70).
enter("Vittorio_Veneto_2_560", "[80|127]", 70).
exit("Vittorio_Veneto_2_560", "[80|127]", 105).
enter("Vittorio_Veneto_2_560", "(77[1][0])", 105).
exit("Vittorio_Veneto_2_560", "(77[1][0])", 125).
enter("Vittorio_Veneto_2_560", "77[1][1]", 125).
exit("Vittorio_Veneto_2_560", "77[1][1]", 185).
origin("Costa_200_1152", "161").
enter("Costa_200_1152", "161", 0).
exit("Costa_200_1152", "161", 75).
enter("Costa_200_1152", "122", 75).
exit("Costa_200_1152", "122", 570).
enter("Costa_200_1152", "1b", 570).
exit("Costa_200_1152", "1b", 1335).
enter("Costa_200_1152", "1", 1335).
exit("Costa_200_1152", "1", 1455).
enter("Costa_200_1152", "204a[0]", 1455).
exit("Costa_200_1152", "204a[0]", 1505).
enter("Costa_200_1152", "204b[0]", 1505).
exit("Costa_200_1152", "204b[0]", 1510).
enter("Costa_200_1152", "204[1][0]", 1510).
exit("Costa_200_1152", "204[1][0]", 1560).
enter("Costa_200_1152", "204[1][1]", 1560).
exit("Costa_200_1152", "204[1][1]", 1645).
origin("Vittorio_Veneto_10_577", "[181|18]").
enter("Vittorio_Veneto_10_577", "[181|18]", 0).
exit("Vittorio_Veneto_10_577", "[181|18]", 75).
enter("Vittorio_Veneto_10_577", "69", 75).
exit("Vittorio_Veneto_10_577", "69", 170).
enter("Vittorio_Veneto_10_577", "161", 170).
exit("Vittorio_Veneto_10_577", "161", 220).
enter("Vittorio_Veneto_10_577", "122", 220).
exit("Vittorio_Veneto_10_577", "122", 320).
enter("Vittorio_Veneto_10_577", "1b", 320).
exit("Vittorio_Veneto_10_577", "1b", 380).
enter("Vittorio_Veneto_10_577", "1", 380).
exit("Vittorio_Veneto_10_577", "1", 415).
enter("Vittorio_Veneto_10_577", "204a[0]", 415).
exit("Vittorio_Veneto_10_577", "204a[0]", 535).
enter("Vittorio_Veneto_10_577", "204b[0]", 535).
exit("Vittorio_Veneto_10_577", "204b[0]", 540).
enter("Vittorio_Veneto_10_577", "204[1][0]", 540).
exit("Vittorio_Veneto_10_577", "204[1][0]", 575).
enter("Vittorio_Veneto_10_577", "204[1][1]", 575).
exit("Vittorio_Veneto_10_577", "204[1][1]", 610).
origin("Togliatti_9_416", "1b").
enter("Togliatti_9_416", "1b", 0).
exit("Togliatti_9_416", "1b", 60).
enter("Togliatti_9_416", "1", 60).
exit("Togliatti_9_416", "1", 95).
enter("Togliatti_9_416", "204a[0]", 95).
exit("Togliatti_9_416", "204a[0]", 215).
enter("Togliatti_9_416", "204b[0]", 215).
exit("Togliatti_9_416", "204b[0]", 220).
enter("Togliatti_9_416", "54", 220).
exit("Togliatti_9_416", "54", 245).
origin("Turati_10_30", "204a[0]").
enter("Turati_10_30", "204a[0]", 0).
exit("Turati_10_30", "204a[0]", 495).
enter("Turati_10_30", "204b[0]", 495).
exit("Turati_10_30", "204b[0]", 525).
enter("Turati_10_30", "204[1][0]", 525).
exit("Turati_10_30", "204[1][0]", 615).
enter("Turati_10_30", "204[1][1]", 615).
exit("Turati_10_30", "204[1][1]", 1685).
origin("XXI_Aprile_103_619", "161").
enter("XXI_Aprile_103_619", "161", 0).
exit("XXI_Aprile_103_619", "161", 50).
enter("XXI_Aprile_103_619", "122", 50).
exit("XXI_Aprile_103_619", "122", 150).
enter("XXI_Aprile_103_619", "1b", 150).
exit("XXI_Aprile_103_619", "1b", 210).
enter("XXI_Aprile_103_619", "1", 210).
exit("XXI_Aprile_103_619", "1", 245).
enter("XXI_Aprile_103_619", "204a[0]", 245).
exit("XXI_Aprile_103_619", "204a[0]", 365).
enter("XXI_Aprile_103_619", "204b[0]", 365).
exit("XXI_Aprile_103_619", "204b[0]", 370).
enter("XXI_Aprile_103_619", "204[1][0]", 370).
exit("XXI_Aprile_103_619", "204[1][0]", 405).
enter("XXI_Aprile_103_619", "204[1][1]", 405).
exit("XXI_Aprile_103_619", "204[1][1]", 605).
origin("Costa_91_1213", "161").
enter("Costa_91_1213", "161", 0).
exit("Costa_91_1213", "161", 50).
enter("Costa_91_1213", "122", 50).
exit("Costa_91_1213", "122", 105).
enter("Costa_91_1213", "1b", 105).
exit("Costa_91_1213", "1b", 165).
enter("Costa_91_1213", "1", 165).
exit("Costa_91_1213", "1", 200).
enter("Costa_91_1213", "204a[0]", 200).
exit("Costa_91_1213", "204a[0]", 320).
enter("Costa_91_1213", "204b[0]", 320).
exit("Costa_91_1213", "204b[0]", 325).
enter("Costa_91_1213", "54", 325).
exit("Costa_91_1213", "54", 350).
origin("Togliatti_10_605", "72[0]").
enter("Togliatti_10_605", "72[0]", 0).
exit("Togliatti_10_605", "72[0]", 75).
enter("Togliatti_10_605", "72[1]", 75).
exit("Togliatti_10_605", "72[1]", 115).
enter("Togliatti_10_605", "69", 115).
exit("Togliatti_10_605", "69", 210).
enter("Togliatti_10_605", "161", 210).
exit("Togliatti_10_605", "161", 260).
enter("Togliatti_10_605", "122", 260).
exit("Togliatti_10_605", "122", 315).
enter("Togliatti_10_605", "1b", 315).
exit("Togliatti_10_605", "1b", 375).
enter("Togliatti_10_605", "1", 375).
exit("Togliatti_10_605", "1", 410).
enter("Togliatti_10_605", "204a[0]", 410).
exit("Togliatti_10_605", "204a[0]", 530).
enter("Togliatti_10_605", "204b[0]", 530).
exit("Togliatti_10_605", "204b[0]", 535).
enter("Togliatti_10_605", "204[1][0]", 535).
exit("Togliatti_10_605", "204[1][0]", 570).
enter("Togliatti_10_605", "204[1][1]", 570).
exit("Togliatti_10_605", "204[1][1]", 605).
origin("Togliatti_10_614", "72[0]").
enter("Togliatti_10_614", "72[0]", 0).
exit("Togliatti_10_614", "72[0]", 75).
enter("Togliatti_10_614", "72[1]", 75).
exit("Togliatti_10_614", "72[1]", 115).
enter("Togliatti_10_614", "69", 115).
exit("Togliatti_10_614", "69", 210).
enter("Togliatti_10_614", "161", 210).
exit("Togliatti_10_614", "161", 260).
enter("Togliatti_10_614", "122", 260).
exit("Togliatti_10_614", "122", 315).
enter("Togliatti_10_614", "1b", 315).
exit("Togliatti_10_614", "1b", 375).
enter("Togliatti_10_614", "1", 375).
exit("Togliatti_10_614", "1", 410).
enter("Togliatti_10_614", "204a[0]", 410).
exit("Togliatti_10_614", "204a[0]", 530).
enter("Togliatti_10_614", "204b[0]", 530).
exit("Togliatti_10_614", "204b[0]", 535).
enter("Togliatti_10_614", "204[1][0]", 535).
exit("Togliatti_10_614", "204[1][0]", 570).
enter("Togliatti_10_614", "204[1][1]", 570).
exit("Togliatti_10_614", "204[1][1]", 625).
origin("XXI_Aprile_113_895", "119").
enter("XXI_Aprile_113_895", "119", 0).
exit("XXI_Aprile_113_895", "119", 15).
enter("XXI_Aprile_113_895", "[116|46]", 15).
exit("XXI_Aprile_113_895", "[116|46]", 80).
enter("XXI_Aprile_113_895", "201", 80).
exit("XXI_Aprile_113_895", "201", 460).
enter("XXI_Aprile_113_895", "201c", 460).
exit("XXI_Aprile_113_895", "201c", 680).
enter("XXI_Aprile_113_895", "204a[0]", 680).
exit("XXI_Aprile_113_895", "204a[0]", 765).
enter("XXI_Aprile_113_895", "124", 765).
exit("XXI_Aprile_113_895", "124", 840).
origin("XXI_Aprile_7_767", "186").
enter("XXI_Aprile_7_767", "186", 0).
exit("XXI_Aprile_7_767", "186", 30).
enter("XXI_Aprile_7_767", "[109[0]|109[1][0]+20003|109[1][1]]", 30).
exit("XXI_Aprile_7_767", "[109[0]|109[1][0]+20003|109[1][1]]", 65).
enter("XXI_Aprile_7_767", "[116|46]", 65).
exit("XXI_Aprile_7_767", "[116|46]", 130).
enter("XXI_Aprile_7_767", "113", 130).
exit("XXI_Aprile_7_767", "113", 170).
enter("XXI_Aprile_7_767", "209", 170).
exit("XXI_Aprile_7_767", "209", 270).
origin("Vittorio_Veneto_10_488", "69").
enter("Vittorio_Veneto_10_488", "69", 0).
exit("Vittorio_Veneto_10_488", "69", 95).
enter("Vittorio_Veneto_10_488", "161", 95).
exit("Vittorio_Veneto_10_488", "161", 185).
enter("Vittorio_Veneto_10_488", "122", 185).
exit("Vittorio_Veneto_10_488", "122", 285).
enter("Vittorio_Veneto_10_488", "1b", 285).
exit("Vittorio_Veneto_10_488", "1b", 345).
enter("Vittorio_Veneto_10_488", "1", 345).
exit("Vittorio_Veneto_10_488", "1", 380).
enter("Vittorio_Veneto_10_488", "204a[0]", 380).
exit("Vittorio_Veneto_10_488", "204a[0]", 500).
enter("Vittorio_Veneto_10_488", "204b[0]", 500).
exit("Vittorio_Veneto_10_488", "204b[0]", 505).
enter("Vittorio_Veneto_10_488", "204[1][0]", 505).
exit("Vittorio_Veneto_10_488", "204[1][0]", 540).
enter("Vittorio_Veneto_10_488", "204[1][1]", 540).
exit("Vittorio_Veneto_10_488", "204[1][1]", 740).
origin("Costa_200_1343", "69").
enter("Costa_200_1343", "69", 0).
exit("Costa_200_1343", "69", 95).
enter("Costa_200_1343", "161", 95).
exit("Costa_200_1343", "161", 145).
enter("Costa_200_1343", "122", 145).
exit("Costa_200_1343", "122", 245).
enter("Costa_200_1343", "1b", 245).
exit("Costa_200_1343", "1b", 305).
enter("Costa_200_1343", "1", 305).
exit("Costa_200_1343", "1", 340).
enter("Costa_200_1343", "204a[0]", 340).
exit("Costa_200_1343", "204a[0]", 460).
enter("Costa_200_1343", "204b[0]", 460).
exit("Costa_200_1343", "204b[0]", 465).
enter("Costa_200_1343", "204[1][0]", 465).
exit("Costa_200_1343", "204[1][0]", 500).
enter("Costa_200_1343", "204[1][1]", 500).
exit("Costa_200_1343", "204[1][1]", 535).
origin("Pepoli_11_1972", "201").
enter("Pepoli_11_1972", "201", 0).
exit("Pepoli_11_1972", "201", 135).
enter("Pepoli_11_1972", "201c", 135).
exit("Pepoli_11_1972", "201c", 170).
enter("Pepoli_11_1972", "204a[0]", 170).
exit("Pepoli_11_1972", "204a[0]", 290).
enter("Pepoli_11_1972", "124", 290).
exit("Pepoli_11_1972", "124", 335).
origin("Audinot_5_158", "131").
enter("Audinot_5_158", "131", 0).
exit("Audinot_5_158", "131", 80).
enter("Audinot_5_158", "65", 80).
exit("Audinot_5_158", "65", 125).
enter("Audinot_5_158", "[200|60]", 125).
exit("Audinot_5_158", "[200|60]", 260).
origin("XXI_Aprile_113_771", "122").
enter("XXI_Aprile_113_771", "122", 0).
exit("XXI_Aprile_113_771", "122", 100).
enter("XXI_Aprile_113_771", "1b", 100).
exit("XXI_Aprile_113_771", "1b", 160).
enter("XXI_Aprile_113_771", "1", 160).
exit("XXI_Aprile_113_771", "1", 195).
enter("XXI_Aprile_113_771", "204a[0]", 195).
exit("XXI_Aprile_113_771", "204a[0]", 315).
enter("XXI_Aprile_113_771", "124", 315).
exit("XXI_Aprile_113_771", "124", 360).
origin("Costa_200_488", "122").
enter("Costa_200_488", "122", 0).
exit("Costa_200_488", "122", 55).
enter("Costa_200_488", "1b", 55).
exit("Costa_200_488", "1b", 115).
enter("Costa_200_488", "1", 115).
exit("Costa_200_488", "1", 150).
enter("Costa_200_488", "204a[0]", 150).
exit("Costa_200_488", "204a[0]", 270).
enter("Costa_200_488", "204b[0]", 270).
exit("Costa_200_488", "204b[0]", 275).
enter("Costa_200_488", "204[1][0]", 275).
exit("Costa_200_488", "204[1][0]", 310).
enter("Costa_200_488", "204[1][1]", 310).
exit("Costa_200_488", "204[1][1]", 345).
origin("Pepoli_3_1619", "[210|43[0]]").
enter("Pepoli_3_1619", "[210|43[0]]", 0).
exit("Pepoli_3_1619", "[210|43[0]]", 65).
enter("Pepoli_3_1619", "118", 65).
exit("Pepoli_3_1619", "118", 105).
enter("Pepoli_3_1619", "65", 105).
exit("Pepoli_3_1619", "65", 185).
enter("Pepoli_3_1619", "57[0]", 185).
exit("Pepoli_3_1619", "57[0]", 230).
enter("Pepoli_3_1619", "57[1]", 230).
exit("Pepoli_3_1619", "57[1]", 245).
enter("Pepoli_3_1619", "62", 245).
exit("Pepoli_3_1619", "62", 295).
enter("Pepoli_3_1619", "159", 295).
exit("Pepoli_3_1619", "159", 315).
enter("Pepoli_3_1619", "42", 315).
exit("Pepoli_3_1619", "42", 355).
enter("Pepoli_3_1619", "39", 355).
exit("Pepoli_3_1619", "39", 440).
enter("Pepoli_3_1619", "35", 440).
exit("Pepoli_3_1619", "35", 455).
enter("Pepoli_3_1619", "38", 455).
exit("Pepoli_3_1619", "38", 470).
enter("Pepoli_3_1619", "33", 470).
exit("Pepoli_3_1619", "33", 500).
enter("Pepoli_3_1619", "10", 500).
exit("Pepoli_3_1619", "10", 525).
origin("Pepoli_11_2049", "201").
enter("Pepoli_11_2049", "201", 0).
exit("Pepoli_11_2049", "201", 135).
enter("Pepoli_11_2049", "201c", 135).
exit("Pepoli_11_2049", "201c", 170).
enter("Pepoli_11_2049", "204a[0]", 170).
exit("Pepoli_11_2049", "204a[0]", 290).
enter("Pepoli_11_2049", "124", 290).
exit("Pepoli_11_2049", "124", 335).
origin("Costa_50_1372", "[200|60]").
enter("Costa_50_1372", "[200|60]", 0).
exit("Costa_50_1372", "[200|60]", 135).
origin("Togliatti_10_446", "122").
enter("Togliatti_10_446", "122", 0).
exit("Togliatti_10_446", "122", 55).
enter("Togliatti_10_446", "1b", 55).
exit("Togliatti_10_446", "1b", 115).
enter("Togliatti_10_446", "1", 115).
exit("Togliatti_10_446", "1", 150).
enter("Togliatti_10_446", "204a[0]", 150).
exit("Togliatti_10_446", "204a[0]", 270).
enter("Togliatti_10_446", "204b[0]", 270).
exit("Togliatti_10_446", "204b[0]", 275).
enter("Togliatti_10_446", "204[1][0]", 275).
exit("Togliatti_10_446", "204[1][0]", 310).
enter("Togliatti_10_446", "204[1][1]", 310).
exit("Togliatti_10_446", "204[1][1]", 345).
origin("Costa_200_737", "122").
enter("Costa_200_737", "122", 0).
exit("Costa_200_737", "122", 100).
enter("Costa_200_737", "1b", 100).
exit("Costa_200_737", "1b", 160).
enter("Costa_200_737", "1", 160).
exit("Costa_200_737", "1", 195).
enter("Costa_200_737", "204a[0]", 195).
exit("Costa_200_737", "204a[0]", 315).
enter("Costa_200_737", "204b[0]", 315).
exit("Costa_200_737", "204b[0]", 320).
enter("Costa_200_737", "204[1][0]", 320).
exit("Costa_200_737", "204[1][0]", 355).
enter("Costa_200_737", "204[1][1]", 355).
exit("Costa_200_737", "204[1][1]", 410).
origin("Pepoli_3_1038", "15").
enter("Pepoli_3_1038", "15", 0).
exit("Pepoli_3_1038", "15", 75).
enter("Pepoli_3_1038", "14", 75).
exit("Pepoli_3_1038", "14", 115).
origin("XXI_Aprile_7_970", "58[1]").
enter("XXI_Aprile_7_970", "58[1]", 0).
exit("XXI_Aprile_7_970", "58[1]", 15).
enter("XXI_Aprile_7_970", "66", 15).
exit("XXI_Aprile_7_970", "66", 25).
enter("XXI_Aprile_7_970", "117", 25).
exit("XXI_Aprile_7_970", "117", 80).
enter("XXI_Aprile_7_970", "209", 80).
exit("XXI_Aprile_7_970", "209", 115).
origin("Pepoli_11_1983", "201").
enter("Pepoli_11_1983", "201", 0).
exit("Pepoli_11_1983", "201", 135).
enter("Pepoli_11_1983", "201c", 135).
exit("Pepoli_11_1983", "201c", 170).
enter("Pepoli_11_1983", "204a[0]", 170).
exit("Pepoli_11_1983", "204a[0]", 290).
enter("Pepoli_11_1983", "124", 290).
exit("Pepoli_11_1983", "124", 335).
origin("XXI_Aprile_94_787", "72[1]").
enter("XXI_Aprile_94_787", "72[1]", 0).
exit("XXI_Aprile_94_787", "72[1]", 40).
enter("XXI_Aprile_94_787", "69", 40).
exit("XXI_Aprile_94_787", "69", 135).
enter("XXI_Aprile_94_787", "161", 135).
exit("XXI_Aprile_94_787", "161", 185).
enter("XXI_Aprile_94_787", "122", 185).
exit("XXI_Aprile_94_787", "122", 285).
enter("XXI_Aprile_94_787", "1b", 285).
exit("XXI_Aprile_94_787", "1b", 345).
enter("XXI_Aprile_94_787", "1", 345).
exit("XXI_Aprile_94_787", "1", 380).
enter("XXI_Aprile_94_787", "204a[0]", 380).
exit("XXI_Aprile_94_787", "204a[0]", 500).
enter("XXI_Aprile_94_787", "204b[0]", 500).
exit("XXI_Aprile_94_787", "204b[0]", 505).
enter("XXI_Aprile_94_787", "54", 505).
exit("XXI_Aprile_94_787", "54", 530).
origin("Vittorio_Veneto_1_649", "224[0]").
enter("Vittorio_Veneto_1_649", "224[0]", 0).
exit("Vittorio_Veneto_1_649", "224[0]", 140).
enter("Vittorio_Veneto_1_649", "224[1]", 140).
exit("Vittorio_Veneto_1_649", "224[1]", 200).
enter("Vittorio_Veneto_1_649", "[181|18]", 200).
exit("Vittorio_Veneto_1_649", "[181|18]", 275).
enter("Vittorio_Veneto_1_649", "[17|71]", 275).
exit("Vittorio_Veneto_1_649", "[17|71]", 330).
enter("Vittorio_Veneto_1_649", "86", 330).
exit("Vittorio_Veneto_1_649", "86", 360).
origin("Vittorio_Veneto_1_662", "224[0]").
enter("Vittorio_Veneto_1_662", "224[0]", 0).
exit("Vittorio_Veneto_1_662", "224[0]", 140).
enter("Vittorio_Veneto_1_662", "224[1]", 140).
exit("Vittorio_Veneto_1_662", "224[1]", 200).
enter("Vittorio_Veneto_1_662", "[181|18]", 200).
exit("Vittorio_Veneto_1_662", "[181|18]", 275).
enter("Vittorio_Veneto_1_662", "[17|71]", 275).
exit("Vittorio_Veneto_1_662", "[17|71]", 330).
enter("Vittorio_Veneto_1_662", "86", 330).
exit("Vittorio_Veneto_1_662", "86", 360).
origin("Costa_50_1364", "[200|60]").
enter("Costa_50_1364", "[200|60]", 0).
exit("Costa_50_1364", "[200|60]", 135).
origin("Vittorio_Veneto_10_444", "161").
enter("Vittorio_Veneto_10_444", "161", 0).
exit("Vittorio_Veneto_10_444", "161", 50).
enter("Vittorio_Veneto_10_444", "122", 50).
exit("Vittorio_Veneto_10_444", "122", 150).
enter("Vittorio_Veneto_10_444", "1b", 150).
exit("Vittorio_Veneto_10_444", "1b", 210).
enter("Vittorio_Veneto_10_444", "1", 210).
exit("Vittorio_Veneto_10_444", "1", 245).
enter("Vittorio_Veneto_10_444", "204a[0]", 245).
exit("Vittorio_Veneto_10_444", "204a[0]", 365).
enter("Vittorio_Veneto_10_444", "204b[0]", 365).
exit("Vittorio_Veneto_10_444", "204b[0]", 370).
enter("Vittorio_Veneto_10_444", "204[1][0]", 370).
exit("Vittorio_Veneto_10_444", "204[1][0]", 405).
enter("Vittorio_Veneto_10_444", "204[1][1]", 405).
exit("Vittorio_Veneto_10_444", "204[1][1]", 510).
origin("Vittorio_Veneto_1_616", "224[0]").
enter("Vittorio_Veneto_1_616", "224[0]", 0).
exit("Vittorio_Veneto_1_616", "224[0]", 140).
enter("Vittorio_Veneto_1_616", "224[1]", 140).
exit("Vittorio_Veneto_1_616", "224[1]", 200).
enter("Vittorio_Veneto_1_616", "[181|18]", 200).
exit("Vittorio_Veneto_1_616", "[181|18]", 275).
enter("Vittorio_Veneto_1_616", "[17|71]", 275).
exit("Vittorio_Veneto_1_616", "[17|71]", 330).
enter("Vittorio_Veneto_1_616", "86", 330).
exit("Vittorio_Veneto_1_616", "86", 360).
origin("Pepoli_11_1868", "201").
enter("Pepoli_11_1868", "201", 0).
exit("Pepoli_11_1868", "201", 135).
enter("Pepoli_11_1868", "201c", 135).
exit("Pepoli_11_1868", "201c", 170).
enter("Pepoli_11_1868", "204a[0]", 170).
exit("Pepoli_11_1868", "204a[0]", 290).
enter("Pepoli_11_1868", "124", 290).
exit("Pepoli_11_1868", "124", 335).
origin("Pepoli_12_1550", "[210|43[0]]").
enter("Pepoli_12_1550", "[210|43[0]]", 0).
exit("Pepoli_12_1550", "[210|43[0]]", 80).
enter("Pepoli_12_1550", "118", 80).
exit("Pepoli_12_1550", "118", 140).
enter("Pepoli_12_1550", "65", 140).
exit("Pepoli_12_1550", "65", 185).
enter("Pepoli_12_1550", "57[0]", 185).
exit("Pepoli_12_1550", "57[0]", 270).
enter("Pepoli_12_1550", "57[1]", 270).
exit("Pepoli_12_1550", "57[1]", 285).
enter("Pepoli_12_1550", "62", 285).
exit("Pepoli_12_1550", "62", 335).
enter("Pepoli_12_1550", "159", 335).
exit("Pepoli_12_1550", "159", 440).
enter("Pepoli_12_1550", "42", 440).
exit("Pepoli_12_1550", "42", 460).
enter("Pepoli_12_1550", "39", 460).
exit("Pepoli_12_1550", "39", 480).
enter("Pepoli_12_1550", "35", 480).
exit("Pepoli_12_1550", "35", 535).
enter("Pepoli_12_1550", "38", 535).
exit("Pepoli_12_1550", "38", 595).
enter("Pepoli_12_1550", "50", 595).
exit("Pepoli_12_1550", "50", 625).
enter("Pepoli_12_1550", "19", 625).
exit("Pepoli_12_1550", "19", 660).
enter("Pepoli_12_1550", "[22|59]", 660).
exit("Pepoli_12_1550", "[22|59]", 700).
enter("Pepoli_12_1550", "(53cd|53[0]|53[1][0])", 700).
exit("Pepoli_12_1550", "(53cd|53[0]|53[1][0])", 720).
enter("Pepoli_12_1550", "79", 720).
exit("Pepoli_12_1550", "79", 740).
enter("Pepoli_12_1550", "[68|11]", 740).
exit("Pepoli_12_1550", "[68|11]", 785).
enter("Pepoli_12_1550", "84", 785).
exit("Pepoli_12_1550", "84", 805).
enter("Pepoli_12_1550", "180", 805).
exit("Pepoli_12_1550", "180", 830).
origin("Pepoli_11_1960", "204a[0]").
enter("Pepoli_11_1960", "204a[0]", 0).
exit("Pepoli_11_1960", "204a[0]", 120).
enter("Pepoli_11_1960", "124", 120).
exit("Pepoli_11_1960", "124", 165).
origin("Togliatti_10_580", "72[0]").
enter("Togliatti_10_580", "72[0]", 0).
exit("Togliatti_10_580", "72[0]", 55).
enter("Togliatti_10_580", "72[1]", 55).
exit("Togliatti_10_580", "72[1]", 95).
enter("Togliatti_10_580", "69", 95).
exit("Togliatti_10_580", "69", 190).
enter("Togliatti_10_580", "161", 190).
exit("Togliatti_10_580", "161", 240).
enter("Togliatti_10_580", "122", 240).
exit("Togliatti_10_580", "122", 295).
enter("Togliatti_10_580", "1b", 295).
exit("Togliatti_10_580", "1b", 355).
enter("Togliatti_10_580", "1", 355).
exit("Togliatti_10_580", "1", 390).
enter("Togliatti_10_580", "204a[0]", 390).
exit("Togliatti_10_580", "204a[0]", 510).
enter("Togliatti_10_580", "204b[0]", 510).
exit("Togliatti_10_580", "204b[0]", 515).
enter("Togliatti_10_580", "204[1][0]", 515).
exit("Togliatti_10_580", "204[1][0]", 550).
enter("Togliatti_10_580", "204[1][1]", 550).
exit("Togliatti_10_580", "204[1][1]", 585).
origin("Audinot_3_148", "38").
enter("Audinot_3_148", "38", 0).
exit("Audinot_3_148", "38", 60).
enter("Audinot_3_148", "15", 60).
exit("Audinot_3_148", "15", 135).
enter("Audinot_3_148", "14", 135).
exit("Audinot_3_148", "14", 175).
origin("Pepoli_3_1504", "[210|43[0]]").
enter("Pepoli_3_1504", "[210|43[0]]", 0).
exit("Pepoli_3_1504", "[210|43[0]]", 185).
enter("Pepoli_3_1504", "118", 185).
exit("Pepoli_3_1504", "118", 235).
enter("Pepoli_3_1504", "65", 235).
exit("Pepoli_3_1504", "65", 315).
enter("Pepoli_3_1504", "57[0]", 315).
exit("Pepoli_3_1504", "57[0]", 330).
enter("Pepoli_3_1504", "57[1]", 330).
exit("Pepoli_3_1504", "57[1]", 425).
enter("Pepoli_3_1504", "62", 425).
exit("Pepoli_3_1504", "62", 445).
enter("Pepoli_3_1504", "159", 445).
exit("Pepoli_3_1504", "159", 510).
enter("Pepoli_3_1504", "42", 510).
exit("Pepoli_3_1504", "42", 580).
enter("Pepoli_3_1504", "39", 580).
exit("Pepoli_3_1504", "39", 635).
enter("Pepoli_3_1504", "35", 635).
exit("Pepoli_3_1504", "35", 680).
enter("Pepoli_3_1504", "38", 680).
exit("Pepoli_3_1504", "38", 700).
enter("Pepoli_3_1504", "33", 700).
exit("Pepoli_3_1504", "33", 760).
enter("Pepoli_3_1504", "10", 760).
exit("Pepoli_3_1504", "10", 785).
origin("XXI_Aprile_7_905", "117").
enter("XXI_Aprile_7_905", "117", 0).
exit("XXI_Aprile_7_905", "117", 65).
enter("XXI_Aprile_7_905", "209", 65).
exit("XXI_Aprile_7_905", "209", 105).
origin("XXI_Aprile_102_837", "74").
enter("XXI_Aprile_102_837", "74", 0).
exit("XXI_Aprile_102_837", "74", 210).
enter("XXI_Aprile_102_837", "72[1]", 210).
exit("XXI_Aprile_102_837", "72[1]", 260).
enter("XXI_Aprile_102_837", "69", 260).
exit("XXI_Aprile_102_837", "69", 315).
enter("XXI_Aprile_102_837", "161", 315).
exit("XXI_Aprile_102_837", "161", 335).
enter("XXI_Aprile_102_837", "122", 335).
exit("XXI_Aprile_102_837", "122", 1745).
enter("XXI_Aprile_102_837", "1b", 1745).
exit("XXI_Aprile_102_837", "1b", 2490).
enter("XXI_Aprile_102_837", "1", 2490).
exit("XXI_Aprile_102_837", "1", 2575).
enter("XXI_Aprile_102_837", "204a[0]", 2575).
exit("XXI_Aprile_102_837", "204a[0]", 2710).
enter("XXI_Aprile_102_837", "204b[0]", 2710).
exit("XXI_Aprile_102_837", "204b[0]", 2715).
enter("XXI_Aprile_102_837", "204[1][0]", 2715).
exit("XXI_Aprile_102_837", "204[1][0]", 2790).
enter("XXI_Aprile_102_837", "204[1][1]", 2790).
exit("XXI_Aprile_102_837", "204[1][1]", 2825).
origin("Togliatti_10_476", "204a[0]").
enter("Togliatti_10_476", "204a[0]", 0).
exit("Togliatti_10_476", "204a[0]", 175).
enter("Togliatti_10_476", "204b[0]", 175).
exit("Togliatti_10_476", "204b[0]", 180).
enter("Togliatti_10_476", "204[1][0]", 180).
exit("Togliatti_10_476", "204[1][0]", 355).
enter("Togliatti_10_476", "204[1][1]", 355).
exit("Togliatti_10_476", "204[1][1]", 710).
origin("Pepoli_3_1380", "159").
enter("Pepoli_3_1380", "159", 0).
exit("Pepoli_3_1380", "159", 105).
enter("Pepoli_3_1380", "42", 105).
exit("Pepoli_3_1380", "42", 125).
enter("Pepoli_3_1380", "39", 125).
exit("Pepoli_3_1380", "39", 145).
enter("Pepoli_3_1380", "35", 145).
exit("Pepoli_3_1380", "35", 200).
enter("Pepoli_3_1380", "38", 200).
exit("Pepoli_3_1380", "38", 260).
enter("Pepoli_3_1380", "15", 260).
exit("Pepoli_3_1380", "15", 335).
enter("Pepoli_3_1380", "14", 335).
exit("Pepoli_3_1380", "14", 375).
origin("Togliatti_9_678", "85").
enter("Togliatti_9_678", "85", 0).
exit("Togliatti_9_678", "85", 60).
enter("Togliatti_9_678", "72[0]", 60).
exit("Togliatti_9_678", "72[0]", 135).
enter("Togliatti_9_678", "72[1]", 135).
exit("Togliatti_9_678", "72[1]", 175).
enter("Togliatti_9_678", "69", 175).
exit("Togliatti_9_678", "69", 270).
enter("Togliatti_9_678", "161", 270).
exit("Togliatti_9_678", "161", 320).
enter("Togliatti_9_678", "122", 320).
exit("Togliatti_9_678", "122", 420).
enter("Togliatti_9_678", "1b", 420).
exit("Togliatti_9_678", "1b", 480).
enter("Togliatti_9_678", "1", 480).
exit("Togliatti_9_678", "1", 515).
enter("Togliatti_9_678", "204a[0]", 515).
exit("Togliatti_9_678", "204a[0]", 635).
enter("Togliatti_9_678", "204b[0]", 635).
exit("Togliatti_9_678", "204b[0]", 640).
enter("Togliatti_9_678", "54", 640).
exit("Togliatti_9_678", "54", 665).
origin("XXI_Aprile_7_917", "74").
enter("XXI_Aprile_7_917", "74", 0).
exit("XXI_Aprile_7_917", "74", 205).
enter("XXI_Aprile_7_917", "72[1]", 205).
exit("XXI_Aprile_7_917", "72[1]", 265).
enter("XXI_Aprile_7_917", "69", 265).
exit("XXI_Aprile_7_917", "69", 360).
enter("XXI_Aprile_7_917", "161", 360).
exit("XXI_Aprile_7_917", "161", 545).
enter("XXI_Aprile_7_917", "194", 545).
exit("XXI_Aprile_7_917", "194", 565).
enter("XXI_Aprile_7_917", "91", 565).
exit("XXI_Aprile_7_917", "91", 580).
enter("XXI_Aprile_7_917", "186", 580).
exit("XXI_Aprile_7_917", "186", 595).
enter("XXI_Aprile_7_917", "[109[0]|109[1][0]+20003|109[1][1]]", 595).
exit("XXI_Aprile_7_917", "[109[0]|109[1][0]+20003|109[1][1]]", 615).
enter("XXI_Aprile_7_917", "120", 615).
exit("XXI_Aprile_7_917", "120", 655).
enter("XXI_Aprile_7_917", "117", 655).
exit("XXI_Aprile_7_917", "117", 710).
enter("XXI_Aprile_7_917", "209", 710).
exit("XXI_Aprile_7_917", "209", 745).
origin("Pepoli_11_1637", "43[1]").
enter("Pepoli_11_1637", "43[1]", 0).
exit("Pepoli_11_1637", "43[1]", 70).
enter("Pepoli_11_1637", "201", 70).
exit("Pepoli_11_1637", "201", 205).
enter("Pepoli_11_1637", "201c", 205).
exit("Pepoli_11_1637", "201c", 240).
enter("Pepoli_11_1637", "204a[0]", 240).
exit("Pepoli_11_1637", "204a[0]", 360).
enter("Pepoli_11_1637", "124", 360).
exit("Pepoli_11_1637", "124", 405).
origin("XXI_Aprile_102_795", "74").
enter("XXI_Aprile_102_795", "74", 0).
exit("XXI_Aprile_102_795", "74", 95).
enter("XXI_Aprile_102_795", "72[1]", 95).
exit("XXI_Aprile_102_795", "72[1]", 135).
enter("XXI_Aprile_102_795", "69", 135).
exit("XXI_Aprile_102_795", "69", 230).
enter("XXI_Aprile_102_795", "161", 230).
exit("XXI_Aprile_102_795", "161", 280).
enter("XXI_Aprile_102_795", "122", 280).
exit("XXI_Aprile_102_795", "122", 380).
enter("XXI_Aprile_102_795", "1b", 380).
exit("XXI_Aprile_102_795", "1b", 440).
enter("XXI_Aprile_102_795", "1", 440).
exit("XXI_Aprile_102_795", "1", 475).
enter("XXI_Aprile_102_795", "204a[0]", 475).
exit("XXI_Aprile_102_795", "204a[0]", 595).
enter("XXI_Aprile_102_795", "204b[0]", 595).
exit("XXI_Aprile_102_795", "204b[0]", 600).
enter("XXI_Aprile_102_795", "204[1][0]", 600).
exit("XXI_Aprile_102_795", "204[1][0]", 635).
enter("XXI_Aprile_102_795", "204[1][1]", 635).
exit("XXI_Aprile_102_795", "204[1][1]", 670).
origin("XXI_Aprile_7_971", "58[1]").
enter("XXI_Aprile_7_971", "58[1]", 0).
exit("XXI_Aprile_7_971", "58[1]", 15).
enter("XXI_Aprile_7_971", "66", 15).
exit("XXI_Aprile_7_971", "66", 25).
enter("XXI_Aprile_7_971", "117", 25).
exit("XXI_Aprile_7_971", "117", 75).
enter("XXI_Aprile_7_971", "209", 75).
exit("XXI_Aprile_7_971", "209", 110).
origin("Pepoli_11_1276", "201").
enter("Pepoli_11_1276", "201", 0).
exit("Pepoli_11_1276", "201", 135).
enter("Pepoli_11_1276", "201c", 135).
exit("Pepoli_11_1276", "201c", 170).
enter("Pepoli_11_1276", "204a[0]", 170).
exit("Pepoli_11_1276", "204a[0]", 290).
enter("Pepoli_11_1276", "124", 290).
exit("Pepoli_11_1276", "124", 335).
origin("Pepoli_12_942", "[68|11]").
enter("Pepoli_12_942", "[68|11]", 0).
exit("Pepoli_12_942", "[68|11]", 80).
enter("Pepoli_12_942", "84", 80).
exit("Pepoli_12_942", "84", 100).
enter("Pepoli_12_942", "180", 100).
exit("Pepoli_12_942", "180", 195).
origin("Togliatti_10_695", "85").
enter("Togliatti_10_695", "85", 0).
exit("Togliatti_10_695", "85", 60).
enter("Togliatti_10_695", "72[0]", 60).
exit("Togliatti_10_695", "72[0]", 135).
enter("Togliatti_10_695", "72[1]", 135).
exit("Togliatti_10_695", "72[1]", 175).
enter("Togliatti_10_695", "69", 175).
exit("Togliatti_10_695", "69", 270).
enter("Togliatti_10_695", "161", 270).
exit("Togliatti_10_695", "161", 320).
enter("Togliatti_10_695", "122", 320).
exit("Togliatti_10_695", "122", 420).
enter("Togliatti_10_695", "1b", 420).
exit("Togliatti_10_695", "1b", 480).
enter("Togliatti_10_695", "1", 480).
exit("Togliatti_10_695", "1", 515).
enter("Togliatti_10_695", "204a[0]", 515).
exit("Togliatti_10_695", "204a[0]", 635).
enter("Togliatti_10_695", "204b[0]", 635).
exit("Togliatti_10_695", "204b[0]", 640).
enter("Togliatti_10_695", "204[1][0]", 640).
exit("Togliatti_10_695", "204[1][0]", 675).
enter("Togliatti_10_695", "204[1][1]", 675).
exit("Togliatti_10_695", "204[1][1]", 710).
origin("Pepoli_11_1912", "201").
enter("Pepoli_11_1912", "201", 0).
exit("Pepoli_11_1912", "201", 135).
enter("Pepoli_11_1912", "201c", 135).
exit("Pepoli_11_1912", "201c", 170).
enter("Pepoli_11_1912", "204a[0]", 170).
exit("Pepoli_11_1912", "204a[0]", 290).
enter("Pepoli_11_1912", "124", 290).
exit("Pepoli_11_1912", "124", 335).
origin("XXI_Aprile_7_798", "91").
enter("XXI_Aprile_7_798", "91", 0).
exit("XXI_Aprile_7_798", "91", 20).
enter("XXI_Aprile_7_798", "186", 20).
exit("XXI_Aprile_7_798", "186", 50).
enter("XXI_Aprile_7_798", "[109[0]|109[1][0]+20003|109[1][1]]", 50).
exit("XXI_Aprile_7_798", "[109[0]|109[1][0]+20003|109[1][1]]", 85).
enter("XXI_Aprile_7_798", "[116|46]", 85).
exit("XXI_Aprile_7_798", "[116|46]", 150).
enter("XXI_Aprile_7_798", "113", 150).
exit("XXI_Aprile_7_798", "113", 200).
enter("XXI_Aprile_7_798", "209", 200).
exit("XXI_Aprile_7_798", "209", 235).
origin("Togliatti_9_675", "85").
enter("Togliatti_9_675", "85", 0).
exit("Togliatti_9_675", "85", 60).
enter("Togliatti_9_675", "72[0]", 60).
exit("Togliatti_9_675", "72[0]", 115).
enter("Togliatti_9_675", "72[1]", 115).
exit("Togliatti_9_675", "72[1]", 330).
enter("Togliatti_9_675", "69", 330).
exit("Togliatti_9_675", "69", 460).
enter("Togliatti_9_675", "161", 460).
exit("Togliatti_9_675", "161", 510).
enter("Togliatti_9_675", "194", 510).
exit("Togliatti_9_675", "194", 555).
enter("Togliatti_9_675", "91", 555).
exit("Togliatti_9_675", "91", 575).
enter("Togliatti_9_675", "186", 575).
exit("Togliatti_9_675", "186", 605).
enter("Togliatti_9_675", "[109[0]|109[1][0]+20003|109[1][1]]", 605).
exit("Togliatti_9_675", "[109[0]|109[1][0]+20003|109[1][1]]", 640).
enter("Togliatti_9_675", "[116|46]", 640).
exit("Togliatti_9_675", "[116|46]", 740).
enter("Togliatti_9_675", "201", 740).
exit("Togliatti_9_675", "201", 830).
enter("Togliatti_9_675", "201c", 830).
exit("Togliatti_9_675", "201c", 880).
enter("Togliatti_9_675", "204a[0]", 880).
exit("Togliatti_9_675", "204a[0]", 1210).
enter("Togliatti_9_675", "204b[0]", 1210).
exit("Togliatti_9_675", "204b[0]", 1220).
enter("Togliatti_9_675", "54", 1220).
exit("Togliatti_9_675", "54", 1270).
origin("XXI_Aprile_7_997", "206").
enter("XXI_Aprile_7_997", "206", 0).
exit("XXI_Aprile_7_997", "206", 10).
enter("XXI_Aprile_7_997", "32", 10).
exit("XXI_Aprile_7_997", "32", 25).
enter("XXI_Aprile_7_997", "40", 25).
exit("XXI_Aprile_7_997", "40", 30).
enter("XXI_Aprile_7_997", "153", 30).
exit("XXI_Aprile_7_997", "153", 95).
enter("XXI_Aprile_7_997", "[87[0]|20001+87[1][0]|87[1][1]]", 95).
exit("XXI_Aprile_7_997", "[87[0]|20001+87[1][0]|87[1][1]]", 150).
enter("XXI_Aprile_7_997", "m90", 150).
exit("XXI_Aprile_7_997", "m90", 165).
enter("XXI_Aprile_7_997", "[89[0]|20002+89[1][0]|89[1][1]]", 165).
exit("XXI_Aprile_7_997", "[89[0]|20002+89[1][0]|89[1][1]]", 205).
enter("XXI_Aprile_7_997", "91", 205).
exit("XXI_Aprile_7_997", "91", 245).
enter("XXI_Aprile_7_997", "186", 245).
exit("XXI_Aprile_7_997", "186", 275).
enter("XXI_Aprile_7_997", "[109[0]|109[1][0]+20003|109[1][1]]", 275).
exit("XXI_Aprile_7_997", "[109[0]|109[1][0]+20003|109[1][1]]", 310).
enter("XXI_Aprile_7_997", "120", 310).
exit("XXI_Aprile_7_997", "120", 325).
enter("XXI_Aprile_7_997", "117", 325).
exit("XXI_Aprile_7_997", "117", 375).
enter("XXI_Aprile_7_997", "209", 375).
exit("XXI_Aprile_7_997", "209", 415).
origin("Costa_200_1036", "122").
enter("Costa_200_1036", "122", 0).
exit("Costa_200_1036", "122", 100).
enter("Costa_200_1036", "1b", 100).
exit("Costa_200_1036", "1b", 160).
enter("Costa_200_1036", "1", 160).
exit("Costa_200_1036", "1", 195).
enter("Costa_200_1036", "204a[0]", 195).
exit("Costa_200_1036", "204a[0]", 315).
enter("Costa_200_1036", "204b[0]", 315).
exit("Costa_200_1036", "204b[0]", 320).
enter("Costa_200_1036", "204[1][0]", 320).
exit("Costa_200_1036", "204[1][0]", 355).
enter("Costa_200_1036", "204[1][1]", 355).
exit("Costa_200_1036", "204[1][1]", 390).
origin("Togliatti_10_662", "85").
enter("Togliatti_10_662", "85", 0).
exit("Togliatti_10_662", "85", 60).
enter("Togliatti_10_662", "72[0]", 60).
exit("Togliatti_10_662", "72[0]", 135).
enter("Togliatti_10_662", "72[1]", 135).
exit("Togliatti_10_662", "72[1]", 175).
enter("Togliatti_10_662", "69", 175).
exit("Togliatti_10_662", "69", 270).
enter("Togliatti_10_662", "161", 270).
exit("Togliatti_10_662", "161", 320).
enter("Togliatti_10_662", "122", 320).
exit("Togliatti_10_662", "122", 420).
enter("Togliatti_10_662", "1b", 420).
exit("Togliatti_10_662", "1b", 480).
enter("Togliatti_10_662", "1", 480).
exit("Togliatti_10_662", "1", 515).
enter("Togliatti_10_662", "204a[0]", 515).
exit("Togliatti_10_662", "204a[0]", 635).
enter("Togliatti_10_662", "204b[0]", 635).
exit("Togliatti_10_662", "204b[0]", 640).
enter("Togliatti_10_662", "204[1][0]", 640).
exit("Togliatti_10_662", "204[1][0]", 675).
enter("Togliatti_10_662", "204[1][1]", 675).
exit("Togliatti_10_662", "204[1][1]", 875).
origin("XXI_Aprile_7_835", "[109[0]|109[1][0]+20003|109[1][1]]").
enter("XXI_Aprile_7_835", "[109[0]|109[1][0]+20003|109[1][1]]", 0).
exit("XXI_Aprile_7_835", "[109[0]|109[1][0]+20003|109[1][1]]", 25).
enter("XXI_Aprile_7_835", "120", 25).
exit("XXI_Aprile_7_835", "120", 55).
enter("XXI_Aprile_7_835", "117", 55).
exit("XXI_Aprile_7_835", "117", 205).
enter("XXI_Aprile_7_835", "209", 205).
exit("XXI_Aprile_7_835", "209", 305).
origin("Vittorio_Veneto_1_578", "[181|18]").
enter("Vittorio_Veneto_1_578", "[181|18]", 0).
exit("Vittorio_Veneto_1_578", "[181|18]", 75).
enter("Vittorio_Veneto_1_578", "[17|71]", 75).
exit("Vittorio_Veneto_1_578", "[17|71]", 125).
enter("Vittorio_Veneto_1_578", "86", 125).
exit("Vittorio_Veneto_1_578", "86", 155).
origin("Pepoli_12_1589", "[210|43[0]]").
enter("Pepoli_12_1589", "[210|43[0]]", 0).
exit("Pepoli_12_1589", "[210|43[0]]", 80).
enter("Pepoli_12_1589", "118", 80).
exit("Pepoli_12_1589", "118", 140).
enter("Pepoli_12_1589", "65", 140).
exit("Pepoli_12_1589", "65", 185).
enter("Pepoli_12_1589", "57[0]", 185).
exit("Pepoli_12_1589", "57[0]", 270).
enter("Pepoli_12_1589", "57[1]", 270).
exit("Pepoli_12_1589", "57[1]", 285).
enter("Pepoli_12_1589", "62", 285).
exit("Pepoli_12_1589", "62", 335).
enter("Pepoli_12_1589", "159", 335).
exit("Pepoli_12_1589", "159", 440).
enter("Pepoli_12_1589", "42", 440).
exit("Pepoli_12_1589", "42", 460).
enter("Pepoli_12_1589", "39", 460).
exit("Pepoli_12_1589", "39", 480).
enter("Pepoli_12_1589", "35", 480).
exit("Pepoli_12_1589", "35", 535).
enter("Pepoli_12_1589", "38", 535).
exit("Pepoli_12_1589", "38", 595).
enter("Pepoli_12_1589", "50", 595).
exit("Pepoli_12_1589", "50", 625).
enter("Pepoli_12_1589", "19", 625).
exit("Pepoli_12_1589", "19", 660).
enter("Pepoli_12_1589", "[22|59]", 660).
exit("Pepoli_12_1589", "[22|59]", 700).
enter("Pepoli_12_1589", "(53cd|53[0]|53[1][0])", 700).
exit("Pepoli_12_1589", "(53cd|53[0]|53[1][0])", 720).
enter("Pepoli_12_1589", "79", 720).
exit("Pepoli_12_1589", "79", 740).
enter("Pepoli_12_1589", "[68|11]", 740).
exit("Pepoli_12_1589", "[68|11]", 785).
enter("Pepoli_12_1589", "84", 785).
exit("Pepoli_12_1589", "84", 805).
enter("Pepoli_12_1589", "180", 805).
exit("Pepoli_12_1589", "180", 830).
origin("Togliatti_10_634", "85").
enter("Togliatti_10_634", "85", 0).
exit("Togliatti_10_634", "85", 110).
enter("Togliatti_10_634", "72[0]", 110).
exit("Togliatti_10_634", "72[0]", 185).
enter("Togliatti_10_634", "72[1]", 185).
exit("Togliatti_10_634", "72[1]", 225).
enter("Togliatti_10_634", "69", 225).
exit("Togliatti_10_634", "69", 320).
enter("Togliatti_10_634", "161", 320).
exit("Togliatti_10_634", "161", 370).
enter("Togliatti_10_634", "122", 370).
exit("Togliatti_10_634", "122", 470).
enter("Togliatti_10_634", "1b", 470).
exit("Togliatti_10_634", "1b", 530).
enter("Togliatti_10_634", "1", 530).
exit("Togliatti_10_634", "1", 565).
enter("Togliatti_10_634", "204a[0]", 565).
exit("Togliatti_10_634", "204a[0]", 685).
enter("Togliatti_10_634", "204b[0]", 685).
exit("Togliatti_10_634", "204b[0]", 690).
enter("Togliatti_10_634", "204[1][0]", 690).
exit("Togliatti_10_634", "204[1][0]", 725).
enter("Togliatti_10_634", "204[1][1]", 725).
exit("Togliatti_10_634", "204[1][1]", 780).
origin("Pepoli_11_2011", "43[1]").
enter("Pepoli_11_2011", "43[1]", 0).
exit("Pepoli_11_2011", "43[1]", 70).
enter("Pepoli_11_2011", "201", 70).
exit("Pepoli_11_2011", "201", 205).
enter("Pepoli_11_2011", "201c", 205).
exit("Pepoli_11_2011", "201c", 240).
enter("Pepoli_11_2011", "204a[0]", 240).
exit("Pepoli_11_2011", "204a[0]", 360).
enter("Pepoli_11_2011", "124", 360).
exit("Pepoli_11_2011", "124", 405).
origin("Togliatti_10_677", "85").
enter("Togliatti_10_677", "85", 0).
exit("Togliatti_10_677", "85", 60).
enter("Togliatti_10_677", "72[0]", 60).
exit("Togliatti_10_677", "72[0]", 135).
enter("Togliatti_10_677", "72[1]", 135).
exit("Togliatti_10_677", "72[1]", 175).
enter("Togliatti_10_677", "69", 175).
exit("Togliatti_10_677", "69", 270).
enter("Togliatti_10_677", "161", 270).
exit("Togliatti_10_677", "161", 320).
enter("Togliatti_10_677", "122", 320).
exit("Togliatti_10_677", "122", 420).
enter("Togliatti_10_677", "1b", 420).
exit("Togliatti_10_677", "1b", 480).
enter("Togliatti_10_677", "1", 480).
exit("Togliatti_10_677", "1", 515).
enter("Togliatti_10_677", "204a[0]", 515).
exit("Togliatti_10_677", "204a[0]", 635).
enter("Togliatti_10_677", "204b[0]", 635).
exit("Togliatti_10_677", "204b[0]", 640).
enter("Togliatti_10_677", "204[1][0]", 640).
exit("Togliatti_10_677", "204[1][0]", 675).
enter("Togliatti_10_677", "204[1][1]", 675).
exit("Togliatti_10_677", "204[1][1]", 710).
origin("Pepoli_3_1381", "159").
enter("Pepoli_3_1381", "159", 0).
exit("Pepoli_3_1381", "159", 105).
enter("Pepoli_3_1381", "42", 105).
exit("Pepoli_3_1381", "42", 125).
enter("Pepoli_3_1381", "39", 125).
exit("Pepoli_3_1381", "39", 145).
enter("Pepoli_3_1381", "35", 145).
exit("Pepoli_3_1381", "35", 200).
enter("Pepoli_3_1381", "38", 200).
exit("Pepoli_3_1381", "38", 260).
enter("Pepoli_3_1381", "15", 260).
exit("Pepoli_3_1381", "15", 335).
enter("Pepoli_3_1381", "14", 335).
exit("Pepoli_3_1381", "14", 375).
origin("Pepoli_11_2040", "204a[0]").
enter("Pepoli_11_2040", "204a[0]", 0).
exit("Pepoli_11_2040", "204a[0]", 120).
enter("Pepoli_11_2040", "124", 120).
exit("Pepoli_11_2040", "124", 165).
origin("Pepoli_11_1898", "43[1]").
enter("Pepoli_11_1898", "43[1]", 0).
exit("Pepoli_11_1898", "43[1]", 70).
enter("Pepoli_11_1898", "201", 70).
exit("Pepoli_11_1898", "201", 205).
enter("Pepoli_11_1898", "201c", 205).
exit("Pepoli_11_1898", "201c", 240).
enter("Pepoli_11_1898", "204a[0]", 240).
exit("Pepoli_11_1898", "204a[0]", 360).
enter("Pepoli_11_1898", "124", 360).
exit("Pepoli_11_1898", "124", 405).
origin("XXI_Aprile_7_728", "[116|46]").
enter("XXI_Aprile_7_728", "[116|46]", 0).
exit("XXI_Aprile_7_728", "[116|46]", 65).
enter("XXI_Aprile_7_728", "113", 65).
exit("XXI_Aprile_7_728", "113", 135).
enter("XXI_Aprile_7_728", "209", 135).
exit("XXI_Aprile_7_728", "209", 170).
origin("XXI_Aprile_8_780", "186").
enter("XXI_Aprile_8_780", "186", 0).
exit("XXI_Aprile_8_780", "186", 30).
enter("XXI_Aprile_8_780", "[109[0]|109[1][0]+20003|109[1][1]]", 30).
exit("XXI_Aprile_8_780", "[109[0]|109[1][0]+20003|109[1][1]]", 65).
enter("XXI_Aprile_8_780", "[116|46]", 65).
exit("XXI_Aprile_8_780", "[116|46]", 130).
enter("XXI_Aprile_8_780", "134", 130).
exit("XXI_Aprile_8_780", "134", 140).
origin("Pepoli_5_1471", "118").
enter("Pepoli_5_1471", "118", 0).
exit("Pepoli_5_1471", "118", 50).
enter("Pepoli_5_1471", "65", 50).
exit("Pepoli_5_1471", "65", 95).
enter("Pepoli_5_1471", "[200|60]", 95).
exit("Pepoli_5_1471", "[200|60]", 135).
origin("XXI_Aprile_1_960", "86").
enter("XXI_Aprile_1_960", "86", 0).
exit("XXI_Aprile_1_960", "86", 30).
origin("Togliatti_10_474", "122").
enter("Togliatti_10_474", "122", 0).
exit("Togliatti_10_474", "122", 465).
enter("Togliatti_10_474", "1b", 465).
exit("Togliatti_10_474", "1b", 1290).
enter("Togliatti_10_474", "1", 1290).
exit("Togliatti_10_474", "1", 1350).
enter("Togliatti_10_474", "204a[0]", 1350).
exit("Togliatti_10_474", "204a[0]", 1460).
enter("Togliatti_10_474", "204b[0]", 1460).
exit("Togliatti_10_474", "204b[0]", 1810).
enter("Togliatti_10_474", "204[1][0]", 1810).
exit("Togliatti_10_474", "204[1][0]", 1845).
enter("Togliatti_10_474", "204[1][1]", 1845).
exit("Togliatti_10_474", "204[1][1]", 2785).
origin("Togliatti_10_609", "72[0]").
enter("Togliatti_10_609", "72[0]", 0).
exit("Togliatti_10_609", "72[0]", 55).
enter("Togliatti_10_609", "72[1]", 55).
exit("Togliatti_10_609", "72[1]", 95).
enter("Togliatti_10_609", "69", 95).
exit("Togliatti_10_609", "69", 190).
enter("Togliatti_10_609", "161", 190).
exit("Togliatti_10_609", "161", 240).
enter("Togliatti_10_609", "122", 240).
exit("Togliatti_10_609", "122", 295).
enter("Togliatti_10_609", "1b", 295).
exit("Togliatti_10_609", "1b", 355).
enter("Togliatti_10_609", "1", 355).
exit("Togliatti_10_609", "1", 390).
enter("Togliatti_10_609", "204a[0]", 390).
exit("Togliatti_10_609", "204a[0]", 510).
enter("Togliatti_10_609", "204b[0]", 510).
exit("Togliatti_10_609", "204b[0]", 515).
enter("Togliatti_10_609", "204[1][0]", 515).
exit("Togliatti_10_609", "204[1][0]", 550).
enter("Togliatti_10_609", "204[1][1]", 550).
exit("Togliatti_10_609", "204[1][1]", 585).
origin("Vittorio_Veneto_2_548", "67").
enter("Vittorio_Veneto_2_548", "67", 0).
exit("Vittorio_Veneto_2_548", "67", 10).
enter("Vittorio_Veneto_2_548", "[80|127]", 10).
exit("Vittorio_Veneto_2_548", "[80|127]", 45).
enter("Vittorio_Veneto_2_548", "(77[1][0])", 45).
exit("Vittorio_Veneto_2_548", "(77[1][0])", 65).
enter("Vittorio_Veneto_2_548", "77[1][1]", 65).
exit("Vittorio_Veneto_2_548", "77[1][1]", 125).
origin("Pepoli_11_1562", "201").
enter("Pepoli_11_1562", "201", 0).
exit("Pepoli_11_1562", "201", 135).
enter("Pepoli_11_1562", "201c", 135).
exit("Pepoli_11_1562", "201c", 170).
enter("Pepoli_11_1562", "204a[0]", 170).
exit("Pepoli_11_1562", "204a[0]", 290).
enter("Pepoli_11_1562", "124", 290).
exit("Pepoli_11_1562", "124", 335).
origin("Pepoli_11_1922", "43[1]").
enter("Pepoli_11_1922", "43[1]", 0).
exit("Pepoli_11_1922", "43[1]", 70).
enter("Pepoli_11_1922", "201", 70).
exit("Pepoli_11_1922", "201", 205).
enter("Pepoli_11_1922", "201c", 205).
exit("Pepoli_11_1922", "201c", 240).
enter("Pepoli_11_1922", "204a[0]", 240).
exit("Pepoli_11_1922", "204a[0]", 360).
enter("Pepoli_11_1922", "124", 360).
exit("Pepoli_11_1922", "124", 405).
origin("XXI_Aprile_7_717", "[116|46]").
enter("XXI_Aprile_7_717", "[116|46]", 0).
exit("XXI_Aprile_7_717", "[116|46]", 65).
enter("XXI_Aprile_7_717", "113", 65).
exit("XXI_Aprile_7_717", "113", 135).
enter("XXI_Aprile_7_717", "209", 135).
exit("XXI_Aprile_7_717", "209", 185).
origin("Pepoli_11_1679", "201").
enter("Pepoli_11_1679", "201", 0).
exit("Pepoli_11_1679", "201", 135).
enter("Pepoli_11_1679", "201c", 135).
exit("Pepoli_11_1679", "201c", 170).
enter("Pepoli_11_1679", "204a[0]", 170).
exit("Pepoli_11_1679", "204a[0]", 290).
enter("Pepoli_11_1679", "124", 290).
exit("Pepoli_11_1679", "124", 335).
origin("Vittorio_Veneto_2_666", "224[0]").
enter("Vittorio_Veneto_2_666", "224[0]", 0).
exit("Vittorio_Veneto_2_666", "224[0]", 140).
enter("Vittorio_Veneto_2_666", "224[1]", 140).
exit("Vittorio_Veneto_2_666", "224[1]", 200).
enter("Vittorio_Veneto_2_666", "[181|18]", 200).
exit("Vittorio_Veneto_2_666", "[181|18]", 275).
enter("Vittorio_Veneto_2_666", "[17|71]", 275).
exit("Vittorio_Veneto_2_666", "[17|71]", 330).
enter("Vittorio_Veneto_2_666", "67", 330).
exit("Vittorio_Veneto_2_666", "67", 345).
enter("Vittorio_Veneto_2_666", "[80|127]", 345).
exit("Vittorio_Veneto_2_666", "[80|127]", 380).
enter("Vittorio_Veneto_2_666", "(77[1][0])", 380).
exit("Vittorio_Veneto_2_666", "(77[1][0])", 400).
enter("Vittorio_Veneto_2_666", "77[1][1]", 400).
exit("Vittorio_Veneto_2_666", "77[1][1]", 440).
origin("XXI_Aprile_7_732", "[116|46]").
enter("XXI_Aprile_7_732", "[116|46]", 0).
exit("XXI_Aprile_7_732", "[116|46]", 65).
enter("XXI_Aprile_7_732", "113", 65).
exit("XXI_Aprile_7_732", "113", 135).
enter("XXI_Aprile_7_732", "209", 135).
exit("XXI_Aprile_7_732", "209", 170).
origin("Vittorio_Veneto_10_427", "161").
enter("Vittorio_Veneto_10_427", "161", 0).
exit("Vittorio_Veneto_10_427", "161", 50).
enter("Vittorio_Veneto_10_427", "122", 50).
exit("Vittorio_Veneto_10_427", "122", 150).
enter("Vittorio_Veneto_10_427", "1b", 150).
exit("Vittorio_Veneto_10_427", "1b", 210).
enter("Vittorio_Veneto_10_427", "1", 210).
exit("Vittorio_Veneto_10_427", "1", 245).
enter("Vittorio_Veneto_10_427", "204a[0]", 245).
exit("Vittorio_Veneto_10_427", "204a[0]", 365).
enter("Vittorio_Veneto_10_427", "204b[0]", 365).
exit("Vittorio_Veneto_10_427", "204b[0]", 370).
enter("Vittorio_Veneto_10_427", "204[1][0]", 370).
exit("Vittorio_Veneto_10_427", "204[1][0]", 405).
enter("Vittorio_Veneto_10_427", "204[1][1]", 405).
exit("Vittorio_Veneto_10_427", "204[1][1]", 510).
origin("Pepoli_3_1625", "[210|43[0]]").
enter("Pepoli_3_1625", "[210|43[0]]", 0).
exit("Pepoli_3_1625", "[210|43[0]]", 65).
enter("Pepoli_3_1625", "118", 65).
exit("Pepoli_3_1625", "118", 100).
enter("Pepoli_3_1625", "65", 100).
exit("Pepoli_3_1625", "65", 125).
enter("Pepoli_3_1625", "57[0]", 125).
exit("Pepoli_3_1625", "57[0]", 140).
enter("Pepoli_3_1625", "57[1]", 140).
exit("Pepoli_3_1625", "57[1]", 165).
enter("Pepoli_3_1625", "62", 165).
exit("Pepoli_3_1625", "62", 190).
enter("Pepoli_3_1625", "159", 190).
exit("Pepoli_3_1625", "159", 230).
enter("Pepoli_3_1625", "42", 230).
exit("Pepoli_3_1625", "42", 250).
enter("Pepoli_3_1625", "39", 250).
exit("Pepoli_3_1625", "39", 335).
enter("Pepoli_3_1625", "35", 335).
exit("Pepoli_3_1625", "35", 390).
enter("Pepoli_3_1625", "38", 390).
exit("Pepoli_3_1625", "38", 470).
enter("Pepoli_3_1625", "33", 470).
exit("Pepoli_3_1625", "33", 500).
enter("Pepoli_3_1625", "10", 500).
exit("Pepoli_3_1625", "10", 555).
origin("Togliatti_10_690", "85").
enter("Togliatti_10_690", "85", 0).
exit("Togliatti_10_690", "85", 60).
enter("Togliatti_10_690", "72[0]", 60).
exit("Togliatti_10_690", "72[0]", 135).
enter("Togliatti_10_690", "72[1]", 135).
exit("Togliatti_10_690", "72[1]", 175).
enter("Togliatti_10_690", "69", 175).
exit("Togliatti_10_690", "69", 270).
enter("Togliatti_10_690", "161", 270).
exit("Togliatti_10_690", "161", 320).
enter("Togliatti_10_690", "122", 320).
exit("Togliatti_10_690", "122", 420).
enter("Togliatti_10_690", "1b", 420).
exit("Togliatti_10_690", "1b", 480).
enter("Togliatti_10_690", "1", 480).
exit("Togliatti_10_690", "1", 515).
enter("Togliatti_10_690", "204a[0]", 515).
exit("Togliatti_10_690", "204a[0]", 635).
enter("Togliatti_10_690", "204b[0]", 635).
exit("Togliatti_10_690", "204b[0]", 640).
enter("Togliatti_10_690", "204[1][0]", 640).
exit("Togliatti_10_690", "204[1][0]", 675).
enter("Togliatti_10_690", "204[1][1]", 675).
exit("Togliatti_10_690", "204[1][1]", 710).
origin("Togliatti_10_497", "204a[0]").
enter("Togliatti_10_497", "204a[0]", 0).
exit("Togliatti_10_497", "204a[0]", 120).
enter("Togliatti_10_497", "204b[0]", 120).
exit("Togliatti_10_497", "204b[0]", 125).
enter("Togliatti_10_497", "204[1][0]", 125).
exit("Togliatti_10_497", "204[1][0]", 160).
enter("Togliatti_10_497", "204[1][1]", 160).
exit("Togliatti_10_497", "204[1][1]", 195).
origin("Pepoli_11_1703", "201").
enter("Pepoli_11_1703", "201", 0).
exit("Pepoli_11_1703", "201", 135).
enter("Pepoli_11_1703", "201c", 135).
exit("Pepoli_11_1703", "201c", 170).
enter("Pepoli_11_1703", "204a[0]", 170).
exit("Pepoli_11_1703", "204a[0]", 290).
enter("Pepoli_11_1703", "124", 290).
exit("Pepoli_11_1703", "124", 335).
origin("Pepoli_11_2029", "201").
enter("Pepoli_11_2029", "201", 0).
exit("Pepoli_11_2029", "201", 135).
enter("Pepoli_11_2029", "201c", 135).
exit("Pepoli_11_2029", "201c", 170).
enter("Pepoli_11_2029", "204a[0]", 170).
exit("Pepoli_11_2029", "204a[0]", 290).
enter("Pepoli_11_2029", "124", 290).
exit("Pepoli_11_2029", "124", 335).
origin("Pepoli_12_1166", "35").
enter("Pepoli_12_1166", "35", 0).
exit("Pepoli_12_1166", "35", 55).
enter("Pepoli_12_1166", "38", 55).
exit("Pepoli_12_1166", "38", 115).
enter("Pepoli_12_1166", "50", 115).
exit("Pepoli_12_1166", "50", 175).
enter("Pepoli_12_1166", "19", 175).
exit("Pepoli_12_1166", "19", 210).
enter("Pepoli_12_1166", "[22|59]", 210).
exit("Pepoli_12_1166", "[22|59]", 280).
enter("Pepoli_12_1166", "(53cd|53[0]|53[1][0])", 280).
exit("Pepoli_12_1166", "(53cd|53[0]|53[1][0])", 300).
enter("Pepoli_12_1166", "79", 300).
exit("Pepoli_12_1166", "79", 370).
enter("Pepoli_12_1166", "[68|11]", 370).
exit("Pepoli_12_1166", "[68|11]", 425).
enter("Pepoli_12_1166", "84", 425).
exit("Pepoli_12_1166", "84", 445).
enter("Pepoli_12_1166", "180", 445).
exit("Pepoli_12_1166", "180", 470).
origin("XXI_Aprile_7_947", "91").
enter("XXI_Aprile_7_947", "91", 0).
exit("XXI_Aprile_7_947", "91", 25).
enter("XXI_Aprile_7_947", "186", 25).
exit("XXI_Aprile_7_947", "186", 55).
enter("XXI_Aprile_7_947", "[109[0]|109[1][0]+20003|109[1][1]]", 55).
exit("XXI_Aprile_7_947", "[109[0]|109[1][0]+20003|109[1][1]]", 90).
enter("XXI_Aprile_7_947", "[116|46]", 90).
exit("XXI_Aprile_7_947", "[116|46]", 140).
enter("XXI_Aprile_7_947", "113", 140).
exit("XXI_Aprile_7_947", "113", 190).
enter("XXI_Aprile_7_947", "209", 190).
exit("XXI_Aprile_7_947", "209", 230).
origin("Pepoli_3_1518", "[210|43[0]]").
enter("Pepoli_3_1518", "[210|43[0]]", 0).
exit("Pepoli_3_1518", "[210|43[0]]", 125).
enter("Pepoli_3_1518", "118", 125).
exit("Pepoli_3_1518", "118", 300).
enter("Pepoli_3_1518", "65", 300).
exit("Pepoli_3_1518", "65", 315).
enter("Pepoli_3_1518", "57[0]", 315).
exit("Pepoli_3_1518", "57[0]", 330).
enter("Pepoli_3_1518", "57[1]", 330).
exit("Pepoli_3_1518", "57[1]", 345).
enter("Pepoli_3_1518", "62", 345).
exit("Pepoli_3_1518", "62", 405).
enter("Pepoli_3_1518", "159", 405).
exit("Pepoli_3_1518", "159", 440).
enter("Pepoli_3_1518", "42", 440).
exit("Pepoli_3_1518", "42", 475).
enter("Pepoli_3_1518", "39", 475).
exit("Pepoli_3_1518", "39", 530).
enter("Pepoli_3_1518", "35", 530).
exit("Pepoli_3_1518", "35", 575).
enter("Pepoli_3_1518", "38", 575).
exit("Pepoli_3_1518", "38", 610).
enter("Pepoli_3_1518", "33", 610).
exit("Pepoli_3_1518", "33", 695).
enter("Pepoli_3_1518", "10", 695).
exit("Pepoli_3_1518", "10", 750).
origin("XXI_Aprile_103_380", "122").
enter("XXI_Aprile_103_380", "122", 0).
exit("XXI_Aprile_103_380", "122", 55).
enter("XXI_Aprile_103_380", "1b", 55).
exit("XXI_Aprile_103_380", "1b", 115).
enter("XXI_Aprile_103_380", "1", 115).
exit("XXI_Aprile_103_380", "1", 150).
enter("XXI_Aprile_103_380", "204a[0]", 150).
exit("XXI_Aprile_103_380", "204a[0]", 270).
enter("XXI_Aprile_103_380", "204b[0]", 270).
exit("XXI_Aprile_103_380", "204b[0]", 275).
enter("XXI_Aprile_103_380", "204[1][0]", 275).
exit("XXI_Aprile_103_380", "204[1][0]", 310).
enter("XXI_Aprile_103_380", "204[1][1]", 310).
exit("XXI_Aprile_103_380", "204[1][1]", 345).
origin("Pepoli_11_1955", "43[1]").
enter("Pepoli_11_1955", "43[1]", 0).
exit("Pepoli_11_1955", "43[1]", 70).
enter("Pepoli_11_1955", "201", 70).
exit("Pepoli_11_1955", "201", 205).
enter("Pepoli_11_1955", "201c", 205).
exit("Pepoli_11_1955", "201c", 240).
enter("Pepoli_11_1955", "204a[0]", 240).
exit("Pepoli_11_1955", "204a[0]", 360).
enter("Pepoli_11_1955", "124", 360).
exit("Pepoli_11_1955", "124", 405).
origin("Vittorio_Veneto_10_556", "[181|18]").
enter("Vittorio_Veneto_10_556", "[181|18]", 0).
exit("Vittorio_Veneto_10_556", "[181|18]", 75).
enter("Vittorio_Veneto_10_556", "69", 75).
exit("Vittorio_Veneto_10_556", "69", 170).
enter("Vittorio_Veneto_10_556", "161", 170).
exit("Vittorio_Veneto_10_556", "161", 220).
enter("Vittorio_Veneto_10_556", "122", 220).
exit("Vittorio_Veneto_10_556", "122", 320).
enter("Vittorio_Veneto_10_556", "1b", 320).
exit("Vittorio_Veneto_10_556", "1b", 380).
enter("Vittorio_Veneto_10_556", "1", 380).
exit("Vittorio_Veneto_10_556", "1", 415).
enter("Vittorio_Veneto_10_556", "204a[0]", 415).
exit("Vittorio_Veneto_10_556", "204a[0]", 535).
enter("Vittorio_Veneto_10_556", "204b[0]", 535).
exit("Vittorio_Veneto_10_556", "204b[0]", 540).
enter("Vittorio_Veneto_10_556", "204[1][0]", 540).
exit("Vittorio_Veneto_10_556", "204[1][0]", 575).
enter("Vittorio_Veneto_10_556", "204[1][1]", 575).
exit("Vittorio_Veneto_10_556", "204[1][1]", 610).
origin("Vittorio_Veneto_10_417", "161").
enter("Vittorio_Veneto_10_417", "161", 0).
exit("Vittorio_Veneto_10_417", "161", 50).
enter("Vittorio_Veneto_10_417", "122", 50).
exit("Vittorio_Veneto_10_417", "122", 150).
enter("Vittorio_Veneto_10_417", "1b", 150).
exit("Vittorio_Veneto_10_417", "1b", 210).
enter("Vittorio_Veneto_10_417", "1", 210).
exit("Vittorio_Veneto_10_417", "1", 245).
enter("Vittorio_Veneto_10_417", "204a[0]", 245).
exit("Vittorio_Veneto_10_417", "204a[0]", 365).
enter("Vittorio_Veneto_10_417", "204b[0]", 365).
exit("Vittorio_Veneto_10_417", "204b[0]", 370).
enter("Vittorio_Veneto_10_417", "204[1][0]", 370).
exit("Vittorio_Veneto_10_417", "204[1][0]", 405).
enter("Vittorio_Veneto_10_417", "204[1][1]", 405).
exit("Vittorio_Veneto_10_417", "204[1][1]", 460).
origin("XXI_Aprile_102_869", "122").
enter("XXI_Aprile_102_869", "122", 0).
exit("XXI_Aprile_102_869", "122", 1620).
enter("XXI_Aprile_102_869", "1b", 1620).
exit("XXI_Aprile_102_869", "1b", 2470).
enter("XXI_Aprile_102_869", "1", 2470).
exit("XXI_Aprile_102_869", "1", 2560).
enter("XXI_Aprile_102_869", "204a[0]", 2560).
exit("XXI_Aprile_102_869", "204a[0]", 2665).
enter("XXI_Aprile_102_869", "204b[0]", 2665).
exit("XXI_Aprile_102_869", "204b[0]", 2680).
enter("XXI_Aprile_102_869", "204[1][0]", 2680).
exit("XXI_Aprile_102_869", "204[1][0]", 2735).
enter("XXI_Aprile_102_869", "204[1][1]", 2735).
exit("XXI_Aprile_102_869", "204[1][1]", 2940).
origin("Togliatti_10_705", "85").
enter("Togliatti_10_705", "85", 0).
exit("Togliatti_10_705", "85", 60).
enter("Togliatti_10_705", "72[0]", 60).
exit("Togliatti_10_705", "72[0]", 135).
enter("Togliatti_10_705", "72[1]", 135).
exit("Togliatti_10_705", "72[1]", 175).
enter("Togliatti_10_705", "69", 175).
exit("Togliatti_10_705", "69", 270).
enter("Togliatti_10_705", "161", 270).
exit("Togliatti_10_705", "161", 320).
enter("Togliatti_10_705", "122", 320).
exit("Togliatti_10_705", "122", 420).
enter("Togliatti_10_705", "1b", 420).
exit("Togliatti_10_705", "1b", 480).
enter("Togliatti_10_705", "1", 480).
exit("Togliatti_10_705", "1", 515).
enter("Togliatti_10_705", "204a[0]", 515).
exit("Togliatti_10_705", "204a[0]", 635).
enter("Togliatti_10_705", "204b[0]", 635).
exit("Togliatti_10_705", "204b[0]", 640).
enter("Togliatti_10_705", "204[1][0]", 640).
exit("Togliatti_10_705", "204[1][0]", 675).
enter("Togliatti_10_705", "204[1][1]", 675).
exit("Togliatti_10_705", "204[1][1]", 710).
origin("Pepoli_3_1622", "[210|43[0]]").
enter("Pepoli_3_1622", "[210|43[0]]", 0).
exit("Pepoli_3_1622", "[210|43[0]]", 65).
enter("Pepoli_3_1622", "118", 65).
exit("Pepoli_3_1622", "118", 100).
enter("Pepoli_3_1622", "65", 100).
exit("Pepoli_3_1622", "65", 125).
enter("Pepoli_3_1622", "57[0]", 125).
exit("Pepoli_3_1622", "57[0]", 140).
enter("Pepoli_3_1622", "57[1]", 140).
exit("Pepoli_3_1622", "57[1]", 165).
enter("Pepoli_3_1622", "62", 165).
exit("Pepoli_3_1622", "62", 190).
enter("Pepoli_3_1622", "159", 190).
exit("Pepoli_3_1622", "159", 230).
enter("Pepoli_3_1622", "42", 230).
exit("Pepoli_3_1622", "42", 250).
enter("Pepoli_3_1622", "39", 250).
exit("Pepoli_3_1622", "39", 335).
enter("Pepoli_3_1622", "35", 335).
exit("Pepoli_3_1622", "35", 390).
enter("Pepoli_3_1622", "38", 390).
exit("Pepoli_3_1622", "38", 470).
enter("Pepoli_3_1622", "33", 470).
exit("Pepoli_3_1622", "33", 500).
enter("Pepoli_3_1622", "10", 500).
exit("Pepoli_3_1622", "10", 550).
origin("Pepoli_11_1977", "201").
enter("Pepoli_11_1977", "201", 0).
exit("Pepoli_11_1977", "201", 135).
enter("Pepoli_11_1977", "201c", 135).
exit("Pepoli_11_1977", "201c", 170).
enter("Pepoli_11_1977", "204a[0]", 170).
exit("Pepoli_11_1977", "204a[0]", 290).
enter("Pepoli_11_1977", "124", 290).
exit("Pepoli_11_1977", "124", 335).
origin("Togliatti_9_724", "[189[0]|189[1][0]+20000|189[1][1]]").
enter("Togliatti_9_724", "[189[0]|189[1][0]+20000|189[1][1]]", 0).
exit("Togliatti_9_724", "[189[0]|189[1][0]+20000|189[1][1]]", 50).
enter("Togliatti_9_724", "188", 50).
exit("Togliatti_9_724", "188", 125).
enter("Togliatti_9_724", "[87[0]|20001+87[1][0]|87[1][1]]", 125).
exit("Togliatti_9_724", "[87[0]|20001+87[1][0]|87[1][1]]", 140).
enter("Togliatti_9_724", "m90", 140).
exit("Togliatti_9_724", "m90", 160).
enter("Togliatti_9_724", "[89[0]|20002+89[1][0]|89[1][1]]", 160).
exit("Togliatti_9_724", "[89[0]|20002+89[1][0]|89[1][1]]", 180).
enter("Togliatti_9_724", "91", 180).
exit("Togliatti_9_724", "91", 200).
enter("Togliatti_9_724", "186", 200).
exit("Togliatti_9_724", "186", 215).
enter("Togliatti_9_724", "[109[0]|109[1][0]+20003|109[1][1]]", 215).
exit("Togliatti_9_724", "[109[0]|109[1][0]+20003|109[1][1]]", 235).
enter("Togliatti_9_724", "[116|46]", 235).
exit("Togliatti_9_724", "[116|46]", 315).
enter("Togliatti_9_724", "201", 315).
exit("Togliatti_9_724", "201", 540).
enter("Togliatti_9_724", "201c", 540).
exit("Togliatti_9_724", "201c", 630).
enter("Togliatti_9_724", "204a[0]", 630).
exit("Togliatti_9_724", "204a[0]", 705).
enter("Togliatti_9_724", "204b[0]", 705).
exit("Togliatti_9_724", "204b[0]", 725).
enter("Togliatti_9_724", "54", 725).
exit("Togliatti_9_724", "54", 2900).
origin("Pepoli_11_1884", "201").
enter("Pepoli_11_1884", "201", 0).
exit("Pepoli_11_1884", "201", 135).
enter("Pepoli_11_1884", "201c", 135).
exit("Pepoli_11_1884", "201c", 170).
enter("Pepoli_11_1884", "204a[0]", 170).
exit("Pepoli_11_1884", "204a[0]", 290).
enter("Pepoli_11_1884", "124", 290).
exit("Pepoli_11_1884", "124", 335).
origin("XXI_Aprile_102_820", "74").
enter("XXI_Aprile_102_820", "74", 0).
exit("XXI_Aprile_102_820", "74", 70).
enter("XXI_Aprile_102_820", "72[1]", 70).
exit("XXI_Aprile_102_820", "72[1]", 155).
enter("XXI_Aprile_102_820", "69", 155).
exit("XXI_Aprile_102_820", "69", 205).
enter("XXI_Aprile_102_820", "161", 205).
exit("XXI_Aprile_102_820", "161", 315).
enter("XXI_Aprile_102_820", "122", 315).
exit("XXI_Aprile_102_820", "122", 1695).
enter("XXI_Aprile_102_820", "1b", 1695).
exit("XXI_Aprile_102_820", "1b", 1950).
enter("XXI_Aprile_102_820", "1", 1950).
exit("XXI_Aprile_102_820", "1", 2355).
enter("XXI_Aprile_102_820", "204a[0]", 2355).
exit("XXI_Aprile_102_820", "204a[0]", 2410).
enter("XXI_Aprile_102_820", "204b[0]", 2410).
exit("XXI_Aprile_102_820", "204b[0]", 2690).
enter("XXI_Aprile_102_820", "204[1][0]", 2690).
exit("XXI_Aprile_102_820", "204[1][0]", 2750).
enter("XXI_Aprile_102_820", "204[1][1]", 2750).
exit("XXI_Aprile_102_820", "204[1][1]", 2785).
origin("Vittorio_Veneto_10_609", "224[0]").
enter("Vittorio_Veneto_10_609", "224[0]", 0).
exit("Vittorio_Veneto_10_609", "224[0]", 75).
enter("Vittorio_Veneto_10_609", "224[1]", 75).
exit("Vittorio_Veneto_10_609", "224[1]", 135).
enter("Vittorio_Veneto_10_609", "[181|18]", 135).
exit("Vittorio_Veneto_10_609", "[181|18]", 360).
enter("Vittorio_Veneto_10_609", "69", 360).
exit("Vittorio_Veneto_10_609", "69", 460).
enter("Vittorio_Veneto_10_609", "161", 460).
exit("Vittorio_Veneto_10_609", "161", 485).
enter("Vittorio_Veneto_10_609", "122", 485).
exit("Vittorio_Veneto_10_609", "122", 1725).
enter("Vittorio_Veneto_10_609", "1b", 1725).
exit("Vittorio_Veneto_10_609", "1b", 1770).
enter("Vittorio_Veneto_10_609", "1", 1770).
exit("Vittorio_Veneto_10_609", "1", 2805).
enter("Vittorio_Veneto_10_609", "204a[0]", 2805).
exit("Vittorio_Veneto_10_609", "204a[0]", 2905).
enter("Vittorio_Veneto_10_609", "204b[0]", 2905).
exit("Vittorio_Veneto_10_609", "204b[0]", 2970).
enter("Vittorio_Veneto_10_609", "204[1][0]", 2970).
exit("Vittorio_Veneto_10_609", "204[1][0]", 3030).
enter("Vittorio_Veneto_10_609", "204[1][1]", 3030).
exit("Vittorio_Veneto_10_609", "204[1][1]", 3605).
origin("XXI_Aprile_7_793", "91").
enter("XXI_Aprile_7_793", "91", 0).
exit("XXI_Aprile_7_793", "91", 20).
enter("XXI_Aprile_7_793", "186", 20).
exit("XXI_Aprile_7_793", "186", 50).
enter("XXI_Aprile_7_793", "[109[0]|109[1][0]+20003|109[1][1]]", 50).
exit("XXI_Aprile_7_793", "[109[0]|109[1][0]+20003|109[1][1]]", 85).
enter("XXI_Aprile_7_793", "[116|46]", 85).
exit("XXI_Aprile_7_793", "[116|46]", 135).
enter("XXI_Aprile_7_793", "113", 135).
exit("XXI_Aprile_7_793", "113", 185).
enter("XXI_Aprile_7_793", "209", 185).
exit("XXI_Aprile_7_793", "209", 220).
origin("Pepoli_11_1918", "201").
enter("Pepoli_11_1918", "201", 0).
exit("Pepoli_11_1918", "201", 135).
enter("Pepoli_11_1918", "201c", 135).
exit("Pepoli_11_1918", "201c", 170).
enter("Pepoli_11_1918", "204a[0]", 170).
exit("Pepoli_11_1918", "204a[0]", 290).
enter("Pepoli_11_1918", "124", 290).
exit("Pepoli_11_1918", "124", 335).
origin("Vittorio_Veneto_2_617", "224[0]").
enter("Vittorio_Veneto_2_617", "224[0]", 0).
exit("Vittorio_Veneto_2_617", "224[0]", 140).
enter("Vittorio_Veneto_2_617", "224[1]", 140).
exit("Vittorio_Veneto_2_617", "224[1]", 200).
enter("Vittorio_Veneto_2_617", "[181|18]", 200).
exit("Vittorio_Veneto_2_617", "[181|18]", 275).
enter("Vittorio_Veneto_2_617", "[17|71]", 275).
exit("Vittorio_Veneto_2_617", "[17|71]", 330).
enter("Vittorio_Veneto_2_617", "67", 330).
exit("Vittorio_Veneto_2_617", "67", 345).
enter("Vittorio_Veneto_2_617", "[80|127]", 345).
exit("Vittorio_Veneto_2_617", "[80|127]", 365).
enter("Vittorio_Veneto_2_617", "(77[1][0])", 365).
exit("Vittorio_Veneto_2_617", "(77[1][0])", 385).
enter("Vittorio_Veneto_2_617", "77[1][1]", 385).
exit("Vittorio_Veneto_2_617", "77[1][1]", 425).
origin("Pepoli_11_1943", "201").
enter("Pepoli_11_1943", "201", 0).
exit("Pepoli_11_1943", "201", 135).
enter("Pepoli_11_1943", "201c", 135).
exit("Pepoli_11_1943", "201c", 170).
enter("Pepoli_11_1943", "204a[0]", 170).
exit("Pepoli_11_1943", "204a[0]", 290).
enter("Pepoli_11_1943", "124", 290).
exit("Pepoli_11_1943", "124", 335).
origin("Pepoli_11_612", "204a[0]").
enter("Pepoli_11_612", "204a[0]", 0).
exit("Pepoli_11_612", "204a[0]", 60).
enter("Pepoli_11_612", "124", 60).
exit("Pepoli_11_612", "124", 505).
origin("Togliatti_11_612", "72[0]").
enter("Togliatti_11_612", "72[0]", 0).
exit("Togliatti_11_612", "72[0]", 75).
enter("Togliatti_11_612", "72[1]", 75).
exit("Togliatti_11_612", "72[1]", 115).
enter("Togliatti_11_612", "69", 115).
exit("Togliatti_11_612", "69", 210).
enter("Togliatti_11_612", "161", 210).
exit("Togliatti_11_612", "161", 260).
enter("Togliatti_11_612", "122", 260).
exit("Togliatti_11_612", "122", 315).
enter("Togliatti_11_612", "1b", 315).
exit("Togliatti_11_612", "1b", 375).
enter("Togliatti_11_612", "1", 375).
exit("Togliatti_11_612", "1", 410).
enter("Togliatti_11_612", "204a[0]", 410).
exit("Togliatti_11_612", "204a[0]", 530).
enter("Togliatti_11_612", "124", 530).
exit("Togliatti_11_612", "124", 575).
origin("XXI_Aprile_7_812", "[109[0]|109[1][0]+20003|109[1][1]]").
enter("XXI_Aprile_7_812", "[109[0]|109[1][0]+20003|109[1][1]]", 0).
exit("XXI_Aprile_7_812", "[109[0]|109[1][0]+20003|109[1][1]]", 20).
enter("XXI_Aprile_7_812", "120", 20).
exit("XXI_Aprile_7_812", "120", 115).
enter("XXI_Aprile_7_812", "117", 115).
exit("XXI_Aprile_7_812", "117", 170).
enter("XXI_Aprile_7_812", "209", 170).
exit("XXI_Aprile_7_812", "209", 225).
origin("XXI_Aprile_7_888", "[109[0]|109[1][0]+20003|109[1][1]]").
enter("XXI_Aprile_7_888", "[109[0]|109[1][0]+20003|109[1][1]]", 0).
exit("XXI_Aprile_7_888", "[109[0]|109[1][0]+20003|109[1][1]]", 10).
enter("XXI_Aprile_7_888", "120", 10).
exit("XXI_Aprile_7_888", "120", 40).
enter("XXI_Aprile_7_888", "117", 40).
exit("XXI_Aprile_7_888", "117", 130).
enter("XXI_Aprile_7_888", "209", 130).
exit("XXI_Aprile_7_888", "209", 220).
origin("Pepoli_12_1484", "118").
enter("Pepoli_12_1484", "118", 0).
exit("Pepoli_12_1484", "118", 20).
enter("Pepoli_12_1484", "65", 20).
exit("Pepoli_12_1484", "65", 45).
enter("Pepoli_12_1484", "57[0]", 45).
exit("Pepoli_12_1484", "57[0]", 95).
enter("Pepoli_12_1484", "57[1]", 95).
exit("Pepoli_12_1484", "57[1]", 110).
enter("Pepoli_12_1484", "62", 110).
exit("Pepoli_12_1484", "62", 135).
enter("Pepoli_12_1484", "159", 135).
exit("Pepoli_12_1484", "159", 165).
enter("Pepoli_12_1484", "42", 165).
exit("Pepoli_12_1484", "42", 215).
enter("Pepoli_12_1484", "39", 215).
exit("Pepoli_12_1484", "39", 230).
enter("Pepoli_12_1484", "35", 230).
exit("Pepoli_12_1484", "35", 280).
enter("Pepoli_12_1484", "38", 280).
exit("Pepoli_12_1484", "38", 495).
enter("Pepoli_12_1484", "50", 495).
exit("Pepoli_12_1484", "50", 555).
enter("Pepoli_12_1484", "19", 555).
exit("Pepoli_12_1484", "19", 590).
enter("Pepoli_12_1484", "[22|59]", 590).
exit("Pepoli_12_1484", "[22|59]", 620).
enter("Pepoli_12_1484", "(53cd|53[0])", 620).
exit("Pepoli_12_1484", "(53cd|53[0])", 635).
enter("Pepoli_12_1484", "78[1][1]", 635).
exit("Pepoli_12_1484", "78[1][1]", 655).
enter("Pepoli_12_1484", "[189[0]|189[1][0]+20000|189[1][1]]", 655).
exit("Pepoli_12_1484", "[189[0]|189[1][0]+20000|189[1][1]]", 705).
enter("Pepoli_12_1484", "191", 705).
exit("Pepoli_12_1484", "191", 855).
enter("Pepoli_12_1484", "[17|71]", 855).
exit("Pepoli_12_1484", "[17|71]", 910).
enter("Pepoli_12_1484", "84", 910).
exit("Pepoli_12_1484", "84", 930).
enter("Pepoli_12_1484", "180", 930).
exit("Pepoli_12_1484", "180", 955).
origin("Costa_200_1235", "161").
enter("Costa_200_1235", "161", 0).
exit("Costa_200_1235", "161", 50).
enter("Costa_200_1235", "122", 50).
exit("Costa_200_1235", "122", 105).
enter("Costa_200_1235", "1b", 105).
exit("Costa_200_1235", "1b", 165).
enter("Costa_200_1235", "1", 165).
exit("Costa_200_1235", "1", 200).
enter("Costa_200_1235", "204a[0]", 200).
exit("Costa_200_1235", "204a[0]", 320).
enter("Costa_200_1235", "204b[0]", 320).
exit("Costa_200_1235", "204b[0]", 325).
enter("Costa_200_1235", "204[1][0]", 325).
exit("Costa_200_1235", "204[1][0]", 360).
enter("Costa_200_1235", "204[1][1]", 360).
exit("Costa_200_1235", "204[1][1]", 395).
origin("Pepoli_11_1864", "204a[0]").
enter("Pepoli_11_1864", "204a[0]", 0).
exit("Pepoli_11_1864", "204a[0]", 120).
enter("Pepoli_11_1864", "124", 120).
exit("Pepoli_11_1864", "124", 165).
origin("Pepoli_11_2038", "201").
enter("Pepoli_11_2038", "201", 0).
exit("Pepoli_11_2038", "201", 135).
enter("Pepoli_11_2038", "201c", 135).
exit("Pepoli_11_2038", "201c", 170).
enter("Pepoli_11_2038", "204a[0]", 170).
exit("Pepoli_11_2038", "204a[0]", 290).
enter("Pepoli_11_2038", "124", 290).
exit("Pepoli_11_2038", "124", 335).
origin("Pepoli_11_2045", "201").
enter("Pepoli_11_2045", "201", 0).
exit("Pepoli_11_2045", "201", 135).
enter("Pepoli_11_2045", "201c", 135).
exit("Pepoli_11_2045", "201c", 170).
enter("Pepoli_11_2045", "204a[0]", 170).
exit("Pepoli_11_2045", "204a[0]", 290).
enter("Pepoli_11_2045", "124", 290).
exit("Pepoli_11_2045", "124", 335).
origin("XXI_Aprile_1_885", "[17|71]").
enter("XXI_Aprile_1_885", "[17|71]", 0).
exit("XXI_Aprile_1_885", "[17|71]", 55).
enter("XXI_Aprile_1_885", "86", 55).
exit("XXI_Aprile_1_885", "86", 85).
origin("Pepoli_3_1517", "[210|43[0]]").
enter("Pepoli_3_1517", "[210|43[0]]", 0).
exit("Pepoli_3_1517", "[210|43[0]]", 185).
enter("Pepoli_3_1517", "118", 185).
exit("Pepoli_3_1517", "118", 300).
enter("Pepoli_3_1517", "65", 300).
exit("Pepoli_3_1517", "65", 315).
enter("Pepoli_3_1517", "57[0]", 315).
exit("Pepoli_3_1517", "57[0]", 330).
enter("Pepoli_3_1517", "57[1]", 330).
exit("Pepoli_3_1517", "57[1]", 345).
enter("Pepoli_3_1517", "62", 345).
exit("Pepoli_3_1517", "62", 405).
enter("Pepoli_3_1517", "159", 405).
exit("Pepoli_3_1517", "159", 440).
enter("Pepoli_3_1517", "42", 440).
exit("Pepoli_3_1517", "42", 475).
enter("Pepoli_3_1517", "39", 475).
exit("Pepoli_3_1517", "39", 530).
enter("Pepoli_3_1517", "35", 530).
exit("Pepoli_3_1517", "35", 575).
enter("Pepoli_3_1517", "38", 575).
exit("Pepoli_3_1517", "38", 610).
enter("Pepoli_3_1517", "33", 610).
exit("Pepoli_3_1517", "33", 620).
enter("Pepoli_3_1517", "10", 620).
exit("Pepoli_3_1517", "10", 630).
origin("Costa_200_1167", "161").
enter("Costa_200_1167", "161", 0).
exit("Costa_200_1167", "161", 75).
enter("Costa_200_1167", "122", 75).
exit("Costa_200_1167", "122", 570).
enter("Costa_200_1167", "1b", 570).
exit("Costa_200_1167", "1b", 1460).
enter("Costa_200_1167", "1", 1460).
exit("Costa_200_1167", "1", 1495).
enter("Costa_200_1167", "204a[0]", 1495).
exit("Costa_200_1167", "204a[0]", 1615).
enter("Costa_200_1167", "204b[0]", 1615).
exit("Costa_200_1167", "204b[0]", 1620).
enter("Costa_200_1167", "204[1][0]", 1620).
exit("Costa_200_1167", "204[1][0]", 1655).
enter("Costa_200_1167", "204[1][1]", 1655).
exit("Costa_200_1167", "204[1][1]", 1690).
origin("XXI_Aprile_1_996", "[22|59]").
enter("XXI_Aprile_1_996", "[22|59]", 0).
exit("XXI_Aprile_1_996", "[22|59]", 15).
enter("XXI_Aprile_1_996", "(53cd|53[0]|53[1][0])", 15).
exit("XXI_Aprile_1_996", "(53cd|53[0]|53[1][0])", 25).
enter("XXI_Aprile_1_996", "79", 25).
exit("XXI_Aprile_1_996", "79", 50).
enter("XXI_Aprile_1_996", "[68|11]", 50).
exit("XXI_Aprile_1_996", "[68|11]", 100).
enter("XXI_Aprile_1_996", "86", 100).
exit("XXI_Aprile_1_996", "86", 130).
origin("Vittorio_Veneto_10_611", "224[0]").
enter("Vittorio_Veneto_10_611", "224[0]", 0).
exit("Vittorio_Veneto_10_611", "224[0]", 75).
enter("Vittorio_Veneto_10_611", "224[1]", 75).
exit("Vittorio_Veneto_10_611", "224[1]", 135).
enter("Vittorio_Veneto_10_611", "[181|18]", 135).
exit("Vittorio_Veneto_10_611", "[181|18]", 210).
enter("Vittorio_Veneto_10_611", "69", 210).
exit("Vittorio_Veneto_10_611", "69", 305).
enter("Vittorio_Veneto_10_611", "161", 305).
exit("Vittorio_Veneto_10_611", "161", 330).
enter("Vittorio_Veneto_10_611", "122", 330).
exit("Vittorio_Veneto_10_611", "122", 385).
enter("Vittorio_Veneto_10_611", "1b", 385).
exit("Vittorio_Veneto_10_611", "1b", 445).
enter("Vittorio_Veneto_10_611", "1", 445).
exit("Vittorio_Veneto_10_611", "1", 480).
enter("Vittorio_Veneto_10_611", "204a[0]", 480).
exit("Vittorio_Veneto_10_611", "204a[0]", 600).
enter("Vittorio_Veneto_10_611", "204b[0]", 600).
exit("Vittorio_Veneto_10_611", "204b[0]", 605).
enter("Vittorio_Veneto_10_611", "204[1][0]", 605).
exit("Vittorio_Veneto_10_611", "204[1][0]", 640).
enter("Vittorio_Veneto_10_611", "204[1][1]", 640).
exit("Vittorio_Veneto_10_611", "204[1][1]", 675).
origin("Togliatti_9_426", "122").
enter("Togliatti_9_426", "122", 0).
exit("Togliatti_9_426", "122", 255).
enter("Togliatti_9_426", "1b", 255).
exit("Togliatti_9_426", "1b", 960).
enter("Togliatti_9_426", "1", 960).
exit("Togliatti_9_426", "1", 1000).
enter("Togliatti_9_426", "204a[0]", 1000).
exit("Togliatti_9_426", "204a[0]", 1155).
enter("Togliatti_9_426", "204b[0]", 1155).
exit("Togliatti_9_426", "204b[0]", 1165).
enter("Togliatti_9_426", "54", 1165).
exit("Togliatti_9_426", "54", 2325).
origin("Pepoli_11_1885", "204a[0]").
enter("Pepoli_11_1885", "204a[0]", 0).
exit("Pepoli_11_1885", "204a[0]", 120).
enter("Pepoli_11_1885", "124", 120).
exit("Pepoli_11_1885", "124", 165).
origin("Pepoli_12_948", "[68|11]").
enter("Pepoli_12_948", "[68|11]", 0).
exit("Pepoli_12_948", "[68|11]", 80).
enter("Pepoli_12_948", "84", 80).
exit("Pepoli_12_948", "84", 100).
enter("Pepoli_12_948", "180", 100).
exit("Pepoli_12_948", "180", 195).
origin("XXI_Aprile_1_1008", "[211|45]").
enter("XXI_Aprile_1_1008", "[211|45]", 0).
exit("XXI_Aprile_1_1008", "[211|45]", 15).
enter("XXI_Aprile_1_1008", "44", 15).
exit("XXI_Aprile_1_1008", "44", 75).
enter("XXI_Aprile_1_1008", "38", 75).
exit("XXI_Aprile_1_1008", "38", 115).
enter("XXI_Aprile_1_1008", "50", 115).
exit("XXI_Aprile_1_1008", "50", 135).
enter("XXI_Aprile_1_1008", "19", 135).
exit("XXI_Aprile_1_1008", "19", 145).
enter("XXI_Aprile_1_1008", "[22|59]", 145).
exit("XXI_Aprile_1_1008", "[22|59]", 165).
enter("XXI_Aprile_1_1008", "(53cd|53[0]|53[1][0])", 165).
exit("XXI_Aprile_1_1008", "(53cd|53[0]|53[1][0])", 215).
enter("XXI_Aprile_1_1008", "79", 215).
exit("XXI_Aprile_1_1008", "79", 235).
enter("XXI_Aprile_1_1008", "[68|11]", 235).
exit("XXI_Aprile_1_1008", "[68|11]", 275).
enter("XXI_Aprile_1_1008", "86", 275).
exit("XXI_Aprile_1_1008", "86", 305).
origin("Pepoli_11_2082", "201").
enter("Pepoli_11_2082", "201", 0).
exit("Pepoli_11_2082", "201", 135).
enter("Pepoli_11_2082", "201c", 135).
exit("Pepoli_11_2082", "201c", 170).
enter("Pepoli_11_2082", "204a[0]", 170).
exit("Pepoli_11_2082", "204a[0]", 290).
enter("Pepoli_11_2082", "124", 290).
exit("Pepoli_11_2082", "124", 335).
origin("Pepoli_12_1200", "42").
enter("Pepoli_12_1200", "42", 0).
exit("Pepoli_12_1200", "42", 20).
enter("Pepoli_12_1200", "39", 20).
exit("Pepoli_12_1200", "39", 40).
enter("Pepoli_12_1200", "35", 40).
exit("Pepoli_12_1200", "35", 95).
enter("Pepoli_12_1200", "38", 95).
exit("Pepoli_12_1200", "38", 155).
enter("Pepoli_12_1200", "50", 155).
exit("Pepoli_12_1200", "50", 185).
enter("Pepoli_12_1200", "19", 185).
exit("Pepoli_12_1200", "19", 220).
enter("Pepoli_12_1200", "[22|59]", 220).
exit("Pepoli_12_1200", "[22|59]", 290).
enter("Pepoli_12_1200", "(53cd|53[0]|53[1][0])", 290).
exit("Pepoli_12_1200", "(53cd|53[0]|53[1][0])", 310).
enter("Pepoli_12_1200", "79", 310).
exit("Pepoli_12_1200", "79", 380).
enter("Pepoli_12_1200", "[68|11]", 380).
exit("Pepoli_12_1200", "[68|11]", 435).
enter("Pepoli_12_1200", "84", 435).
exit("Pepoli_12_1200", "84", 455).
enter("Pepoli_12_1200", "180", 455).
exit("Pepoli_12_1200", "180", 480).
origin("Togliatti_11_668", "85").
enter("Togliatti_11_668", "85", 0).
exit("Togliatti_11_668", "85", 60).
enter("Togliatti_11_668", "72[0]", 60).
exit("Togliatti_11_668", "72[0]", 135).
enter("Togliatti_11_668", "72[1]", 135).
exit("Togliatti_11_668", "72[1]", 175).
enter("Togliatti_11_668", "69", 175).
exit("Togliatti_11_668", "69", 270).
enter("Togliatti_11_668", "161", 270).
exit("Togliatti_11_668", "161", 320).
enter("Togliatti_11_668", "122", 320).
exit("Togliatti_11_668", "122", 420).
enter("Togliatti_11_668", "1b", 420).
exit("Togliatti_11_668", "1b", 480).
enter("Togliatti_11_668", "1", 480).
exit("Togliatti_11_668", "1", 515).
enter("Togliatti_11_668", "204a[0]", 515).
exit("Togliatti_11_668", "204a[0]", 635).
enter("Togliatti_11_668", "124", 635).
exit("Togliatti_11_668", "124", 680).
origin("Costa_11_849", "122").
enter("Costa_11_849", "122", 0).
exit("Costa_11_849", "122", 100).
enter("Costa_11_849", "1b", 100).
exit("Costa_11_849", "1b", 160).
enter("Costa_11_849", "1", 160).
exit("Costa_11_849", "1", 195).
enter("Costa_11_849", "204a[0]", 195).
exit("Costa_11_849", "204a[0]", 315).
enter("Costa_11_849", "124", 315).
exit("Costa_11_849", "124", 360).
origin("Pepoli_11_1860", "201c").
enter("Pepoli_11_1860", "201c", 0).
exit("Pepoli_11_1860", "201c", 35).
enter("Pepoli_11_1860", "204a[0]", 35).
exit("Pepoli_11_1860", "204a[0]", 155).
enter("Pepoli_11_1860", "124", 155).
exit("Pepoli_11_1860", "124", 200).
origin("Pepoli_3_1639", "[210|43[0]]").
enter("Pepoli_3_1639", "[210|43[0]]", 0).
exit("Pepoli_3_1639", "[210|43[0]]", 65).
enter("Pepoli_3_1639", "118", 65).
exit("Pepoli_3_1639", "118", 105).
enter("Pepoli_3_1639", "65", 105).
exit("Pepoli_3_1639", "65", 185).
enter("Pepoli_3_1639", "57[0]", 185).
exit("Pepoli_3_1639", "57[0]", 260).
enter("Pepoli_3_1639", "57[1]", 260).
exit("Pepoli_3_1639", "57[1]", 285).
enter("Pepoli_3_1639", "62", 285).
exit("Pepoli_3_1639", "62", 315).
enter("Pepoli_3_1639", "159", 315).
exit("Pepoli_3_1639", "159", 335).
enter("Pepoli_3_1639", "42", 335).
exit("Pepoli_3_1639", "42", 355).
enter("Pepoli_3_1639", "39", 355).
exit("Pepoli_3_1639", "39", 380).
enter("Pepoli_3_1639", "35", 380).
exit("Pepoli_3_1639", "35", 435).
enter("Pepoli_3_1639", "38", 435).
exit("Pepoli_3_1639", "38", 470).
enter("Pepoli_3_1639", "33", 470).
exit("Pepoli_3_1639", "33", 500).
enter("Pepoli_3_1639", "10", 500).
exit("Pepoli_3_1639", "10", 525).
origin("Pepoli_3_1303", "159").
enter("Pepoli_3_1303", "159", 0).
exit("Pepoli_3_1303", "159", 90).
enter("Pepoli_3_1303", "42", 90).
exit("Pepoli_3_1303", "42", 105).
enter("Pepoli_3_1303", "39", 105).
exit("Pepoli_3_1303", "39", 145).
enter("Pepoli_3_1303", "35", 145).
exit("Pepoli_3_1303", "35", 200).
enter("Pepoli_3_1303", "38", 200).
exit("Pepoli_3_1303", "38", 225).
enter("Pepoli_3_1303", "33", 225).
exit("Pepoli_3_1303", "33", 310).
enter("Pepoli_3_1303", "10", 310).
exit("Pepoli_3_1303", "10", 365).
origin("Pepoli_11_2014", "204a[0]").
enter("Pepoli_11_2014", "204a[0]", 0).
exit("Pepoli_11_2014", "204a[0]", 120).
enter("Pepoli_11_2014", "124", 120).
exit("Pepoli_11_2014", "124", 165).
origin("XXI_Aprile_12_807", "84").
enter("XXI_Aprile_12_807", "84", 0).
exit("XXI_Aprile_12_807", "84", 20).
enter("XXI_Aprile_12_807", "180", 20).
exit("XXI_Aprile_12_807", "180", 40).
origin("Costa_200_504", "122").
enter("Costa_200_504", "122", 0).
exit("Costa_200_504", "122", 55).
enter("Costa_200_504", "1b", 55).
exit("Costa_200_504", "1b", 115).
enter("Costa_200_504", "1", 115).
exit("Costa_200_504", "1", 150).
enter("Costa_200_504", "204a[0]", 150).
exit("Costa_200_504", "204a[0]", 270).
enter("Costa_200_504", "204b[0]", 270).
exit("Costa_200_504", "204b[0]", 275).
enter("Costa_200_504", "204[1][0]", 275).
exit("Costa_200_504", "204[1][0]", 310).
enter("Costa_200_504", "204[1][1]", 310).
exit("Costa_200_504", "204[1][1]", 345).
origin("Costa_200_1291", "1b").
enter("Costa_200_1291", "1b", 0).
exit("Costa_200_1291", "1b", 60).
enter("Costa_200_1291", "1", 60).
exit("Costa_200_1291", "1", 95).
enter("Costa_200_1291", "204a[0]", 95).
exit("Costa_200_1291", "204a[0]", 215).
enter("Costa_200_1291", "204b[0]", 215).
exit("Costa_200_1291", "204b[0]", 220).
enter("Costa_200_1291", "204[1][0]", 220).
exit("Costa_200_1291", "204[1][0]", 255).
enter("Costa_200_1291", "204[1][1]", 255).
exit("Costa_200_1291", "204[1][1]", 290).
origin("Vittorio_Veneto_10_562", "[181|18]").
enter("Vittorio_Veneto_10_562", "[181|18]", 0).
exit("Vittorio_Veneto_10_562", "[181|18]", 290).
enter("Vittorio_Veneto_10_562", "69", 290).
exit("Vittorio_Veneto_10_562", "69", 405).
enter("Vittorio_Veneto_10_562", "161", 405).
exit("Vittorio_Veneto_10_562", "161", 460).
enter("Vittorio_Veneto_10_562", "122", 460).
exit("Vittorio_Veneto_10_562", "122", 530).
enter("Vittorio_Veneto_10_562", "1b", 530).
exit("Vittorio_Veneto_10_562", "1b", 1640).
enter("Vittorio_Veneto_10_562", "1", 1640).
exit("Vittorio_Veneto_10_562", "1", 1770).
enter("Vittorio_Veneto_10_562", "204a[0]", 1770).
exit("Vittorio_Veneto_10_562", "204a[0]", 1915).
enter("Vittorio_Veneto_10_562", "204b[0]", 1915).
exit("Vittorio_Veneto_10_562", "204b[0]", 2055).
enter("Vittorio_Veneto_10_562", "204[1][0]", 2055).
exit("Vittorio_Veneto_10_562", "204[1][0]", 2090).
enter("Vittorio_Veneto_10_562", "204[1][1]", 2090).
exit("Vittorio_Veneto_10_562", "204[1][1]", 3060).
origin("XXI_Aprile_7_786", "186").
enter("XXI_Aprile_7_786", "186", 0).
exit("XXI_Aprile_7_786", "186", 30).
enter("XXI_Aprile_7_786", "[109[0]|109[1][0]+20003|109[1][1]]", 30).
exit("XXI_Aprile_7_786", "[109[0]|109[1][0]+20003|109[1][1]]", 65).
enter("XXI_Aprile_7_786", "[116|46]", 65).
exit("XXI_Aprile_7_786", "[116|46]", 130).
enter("XXI_Aprile_7_786", "113", 130).
exit("XXI_Aprile_7_786", "113", 170).
enter("XXI_Aprile_7_786", "209", 170).
exit("XXI_Aprile_7_786", "209", 205).
origin("Costa_200_552", "122").
enter("Costa_200_552", "122", 0).
exit("Costa_200_552", "122", 100).
enter("Costa_200_552", "1b", 100).
exit("Costa_200_552", "1b", 160).
enter("Costa_200_552", "1", 160).
exit("Costa_200_552", "1", 195).
enter("Costa_200_552", "204a[0]", 195).
exit("Costa_200_552", "204a[0]", 315).
enter("Costa_200_552", "204b[0]", 315).
exit("Costa_200_552", "204b[0]", 320).
enter("Costa_200_552", "204[1][0]", 320).
exit("Costa_200_552", "204[1][0]", 355).
enter("Costa_200_552", "204[1][1]", 355).
exit("Costa_200_552", "204[1][1]", 410).
origin("XXI_Aprile_9_527", "204a[0]").
enter("XXI_Aprile_9_527", "204a[0]", 0).
exit("XXI_Aprile_9_527", "204a[0]", 120).
enter("XXI_Aprile_9_527", "204b[0]", 120).
exit("XXI_Aprile_9_527", "204b[0]", 125).
enter("XXI_Aprile_9_527", "54", 125).
exit("XXI_Aprile_9_527", "54", 150).
origin("Pepoli_11_1965", "201").
enter("Pepoli_11_1965", "201", 0).
exit("Pepoli_11_1965", "201", 135).
enter("Pepoli_11_1965", "201c", 135).
exit("Pepoli_11_1965", "201c", 170).
enter("Pepoli_11_1965", "204a[0]", 170).
exit("Pepoli_11_1965", "204a[0]", 290).
enter("Pepoli_11_1965", "124", 290).
exit("Pepoli_11_1965", "124", 335).
origin("Togliatti_11_686", "204a[0]").
enter("Togliatti_11_686", "204a[0]", 0).
exit("Togliatti_11_686", "204a[0]", 185).
enter("Togliatti_11_686", "124", 185).
exit("Togliatti_11_686", "124", 225).
origin("XXI_Aprile_92_878", "122").
enter("XXI_Aprile_92_878", "122", 0).
exit("XXI_Aprile_92_878", "122", 1560).
enter("XXI_Aprile_92_878", "1b", 1560).
exit("XXI_Aprile_92_878", "1b", 2345).
enter("XXI_Aprile_92_878", "1", 2345).
exit("XXI_Aprile_92_878", "1", 2400).
enter("XXI_Aprile_92_878", "204a[0]", 2400).
exit("XXI_Aprile_92_878", "204a[0]", 2475).
enter("XXI_Aprile_92_878", "204b[0]", 2475).
exit("XXI_Aprile_92_878", "204b[0]", 2540).
enter("XXI_Aprile_92_878", "54", 2540).
exit("XXI_Aprile_92_878", "54", 2570).
origin("Audinot_3_152", "159").
enter("Audinot_3_152", "159", 0).
exit("Audinot_3_152", "159", 105).
enter("Audinot_3_152", "42", 105).
exit("Audinot_3_152", "42", 125).
enter("Audinot_3_152", "39", 125).
exit("Audinot_3_152", "39", 145).
enter("Audinot_3_152", "35", 145).
exit("Audinot_3_152", "35", 200).
enter("Audinot_3_152", "38", 200).
exit("Audinot_3_152", "38", 260).
enter("Audinot_3_152", "15", 260).
exit("Audinot_3_152", "15", 335).
enter("Audinot_3_152", "14", 335).
exit("Audinot_3_152", "14", 375).
origin("Pepoli_11_1489", "204a[0]").
enter("Pepoli_11_1489", "204a[0]", 0).
exit("Pepoli_11_1489", "204a[0]", 120).
enter("Pepoli_11_1489", "124", 120).
exit("Pepoli_11_1489", "124", 165).
origin("Costa_200_749", "161").
enter("Costa_200_749", "161", 0).
exit("Costa_200_749", "161", 50).
enter("Costa_200_749", "122", 50).
exit("Costa_200_749", "122", 150).
enter("Costa_200_749", "1b", 150).
exit("Costa_200_749", "1b", 210).
enter("Costa_200_749", "1", 210).
exit("Costa_200_749", "1", 245).
enter("Costa_200_749", "204a[0]", 245).
exit("Costa_200_749", "204a[0]", 365).
enter("Costa_200_749", "204b[0]", 365).
exit("Costa_200_749", "204b[0]", 370).
enter("Costa_200_749", "204[1][0]", 370).
exit("Costa_200_749", "204[1][0]", 405).
enter("Costa_200_749", "204[1][1]", 405).
exit("Costa_200_749", "204[1][1]", 460).
origin("XXI_Aprile_5_1007", "16").
enter("XXI_Aprile_5_1007", "16", 0).
exit("XXI_Aprile_5_1007", "16", 10).
enter("XXI_Aprile_5_1007", "37", 10).
exit("XXI_Aprile_5_1007", "37", 25).
enter("XXI_Aprile_5_1007", "36", 25).
exit("XXI_Aprile_5_1007", "36", 35).
enter("XXI_Aprile_5_1007", "40", 35).
exit("XXI_Aprile_5_1007", "40", 40).
enter("XXI_Aprile_5_1007", "41", 40).
exit("XXI_Aprile_5_1007", "41", 45).
enter("XXI_Aprile_5_1007", "160", 45).
exit("XXI_Aprile_5_1007", "160", 65).
enter("XXI_Aprile_5_1007", "61", 65).
exit("XXI_Aprile_5_1007", "61", 85).
enter("XXI_Aprile_5_1007", "58[0]", 85).
exit("XXI_Aprile_5_1007", "58[0]", 95).
enter("XXI_Aprile_5_1007", "58[1]", 95).
exit("XXI_Aprile_5_1007", "58[1]", 110).
enter("XXI_Aprile_5_1007", "[200|60]", 110).
exit("XXI_Aprile_5_1007", "[200|60]", 135).
origin("Pepoli_11_1724", "204a[0]").
enter("Pepoli_11_1724", "204a[0]", 0).
exit("Pepoli_11_1724", "204a[0]", 120).
enter("Pepoli_11_1724", "124", 120).
exit("Pepoli_11_1724", "124", 165).
origin("Togliatti_10_720", "85").
enter("Togliatti_10_720", "85", 0).
exit("Togliatti_10_720", "85", 60).
enter("Togliatti_10_720", "72[0]", 60).
exit("Togliatti_10_720", "72[0]", 135).
enter("Togliatti_10_720", "72[1]", 135).
exit("Togliatti_10_720", "72[1]", 175).
enter("Togliatti_10_720", "69", 175).
exit("Togliatti_10_720", "69", 270).
enter("Togliatti_10_720", "161", 270).
exit("Togliatti_10_720", "161", 295).
enter("Togliatti_10_720", "122", 295).
exit("Togliatti_10_720", "122", 350).
enter("Togliatti_10_720", "1b", 350).
exit("Togliatti_10_720", "1b", 410).
enter("Togliatti_10_720", "1", 410).
exit("Togliatti_10_720", "1", 445).
enter("Togliatti_10_720", "204a[0]", 445).
exit("Togliatti_10_720", "204a[0]", 565).
enter("Togliatti_10_720", "204b[0]", 565).
exit("Togliatti_10_720", "204b[0]", 570).
enter("Togliatti_10_720", "204[1][0]", 570).
exit("Togliatti_10_720", "204[1][0]", 605).
enter("Togliatti_10_720", "204[1][1]", 605).
exit("Togliatti_10_720", "204[1][1]", 640).
origin("Pepoli_11_1744", "201").
enter("Pepoli_11_1744", "201", 0).
exit("Pepoli_11_1744", "201", 135).
enter("Pepoli_11_1744", "201c", 135).
exit("Pepoli_11_1744", "201c", 170).
enter("Pepoli_11_1744", "204a[0]", 170).
exit("Pepoli_11_1744", "204a[0]", 290).
enter("Pepoli_11_1744", "124", 290).
exit("Pepoli_11_1744", "124", 335).
origin("XXI_Aprile_7_832", "[89[0]|20002+89[1][0]|89[1][1]]").
enter("XXI_Aprile_7_832", "[89[0]|20002+89[1][0]|89[1][1]]", 0).
exit("XXI_Aprile_7_832", "[89[0]|20002+89[1][0]|89[1][1]]", 50).
enter("XXI_Aprile_7_832", "91", 50).
exit("XXI_Aprile_7_832", "91", 95).
enter("XXI_Aprile_7_832", "186", 95).
exit("XXI_Aprile_7_832", "186", 115).
enter("XXI_Aprile_7_832", "[109[0]|109[1][0]+20003|109[1][1]]", 115).
exit("XXI_Aprile_7_832", "[109[0]|109[1][0]+20003|109[1][1]]", 130).
enter("XXI_Aprile_7_832", "[116|46]", 130).
exit("XXI_Aprile_7_832", "[116|46]", 180).
enter("XXI_Aprile_7_832", "113", 180).
exit("XXI_Aprile_7_832", "113", 235).
enter("XXI_Aprile_7_832", "209", 235).
exit("XXI_Aprile_7_832", "209", 290).
origin("Pepoli_11_1850", "43[1]").
enter("Pepoli_11_1850", "43[1]", 0).
exit("Pepoli_11_1850", "43[1]", 70).
enter("Pepoli_11_1850", "201", 70).
exit("Pepoli_11_1850", "201", 205).
enter("Pepoli_11_1850", "201c", 205).
exit("Pepoli_11_1850", "201c", 240).
enter("Pepoli_11_1850", "204a[0]", 240).
exit("Pepoli_11_1850", "204a[0]", 360).
enter("Pepoli_11_1850", "124", 360).
exit("Pepoli_11_1850", "124", 405).
origin("Pepoli_11_1627", "204a[0]").
enter("Pepoli_11_1627", "204a[0]", 0).
exit("Pepoli_11_1627", "204a[0]", 120).
enter("Pepoli_11_1627", "124", 120).
exit("Pepoli_11_1627", "124", 165).
origin("Pepoli_3_1297", "159").
enter("Pepoli_3_1297", "159", 0).
exit("Pepoli_3_1297", "159", 160).
enter("Pepoli_3_1297", "42", 160).
exit("Pepoli_3_1297", "42", 210).
enter("Pepoli_3_1297", "39", 210).
exit("Pepoli_3_1297", "39", 240).
enter("Pepoli_3_1297", "35", 240).
exit("Pepoli_3_1297", "35", 300).
enter("Pepoli_3_1297", "38", 300).
exit("Pepoli_3_1297", "38", 315).
enter("Pepoli_3_1297", "33", 315).
exit("Pepoli_3_1297", "33", 365).
enter("Pepoli_3_1297", "10", 365).
exit("Pepoli_3_1297", "10", 375).
origin("Costa_200_762", "122").
enter("Costa_200_762", "122", 0).
exit("Costa_200_762", "122", 100).
enter("Costa_200_762", "1b", 100).
exit("Costa_200_762", "1b", 160).
enter("Costa_200_762", "1", 160).
exit("Costa_200_762", "1", 195).
enter("Costa_200_762", "204a[0]", 195).
exit("Costa_200_762", "204a[0]", 315).
enter("Costa_200_762", "204b[0]", 315).
exit("Costa_200_762", "204b[0]", 320).
enter("Costa_200_762", "204[1][0]", 320).
exit("Costa_200_762", "204[1][0]", 355).
enter("Costa_200_762", "204[1][1]", 355).
exit("Costa_200_762", "204[1][1]", 460).
origin("Vittorio_Veneto_10_298", "122").
enter("Vittorio_Veneto_10_298", "122", 0).
exit("Vittorio_Veneto_10_298", "122", 55).
enter("Vittorio_Veneto_10_298", "1b", 55).
exit("Vittorio_Veneto_10_298", "1b", 115).
enter("Vittorio_Veneto_10_298", "1", 115).
exit("Vittorio_Veneto_10_298", "1", 150).
enter("Vittorio_Veneto_10_298", "204a[0]", 150).
exit("Vittorio_Veneto_10_298", "204a[0]", 270).
enter("Vittorio_Veneto_10_298", "204b[0]", 270).
exit("Vittorio_Veneto_10_298", "204b[0]", 275).
enter("Vittorio_Veneto_10_298", "204[1][0]", 275).
exit("Vittorio_Veneto_10_298", "204[1][0]", 310).
enter("Vittorio_Veneto_10_298", "204[1][1]", 310).
exit("Vittorio_Veneto_10_298", "204[1][1]", 345).
origin("Pepoli_11_1054", "204a[0]").
enter("Pepoli_11_1054", "204a[0]", 0).
exit("Pepoli_11_1054", "204a[0]", 120).
enter("Pepoli_11_1054", "124", 120).
exit("Pepoli_11_1054", "124", 165).
origin("Pepoli_11_1856", "204a[0]").
enter("Pepoli_11_1856", "204a[0]", 0).
exit("Pepoli_11_1856", "204a[0]", 120).
enter("Pepoli_11_1856", "124", 120).
exit("Pepoli_11_1856", "124", 165).
origin("XXI_Aprile_7_858", "[89[0]|20002+89[1][0]|89[1][1]]").
enter("XXI_Aprile_7_858", "[89[0]|20002+89[1][0]|89[1][1]]", 0).
exit("XXI_Aprile_7_858", "[89[0]|20002+89[1][0]|89[1][1]]", 75).
enter("XXI_Aprile_7_858", "91", 75).
exit("XXI_Aprile_7_858", "91", 95).
enter("XXI_Aprile_7_858", "186", 95).
exit("XXI_Aprile_7_858", "186", 125).
enter("XXI_Aprile_7_858", "[109[0]|109[1][0]+20003|109[1][1]]", 125).
exit("XXI_Aprile_7_858", "[109[0]|109[1][0]+20003|109[1][1]]", 160).
enter("XXI_Aprile_7_858", "[116|46]", 160).
exit("XXI_Aprile_7_858", "[116|46]", 225).
enter("XXI_Aprile_7_858", "113", 225).
exit("XXI_Aprile_7_858", "113", 265).
enter("XXI_Aprile_7_858", "209", 265).
exit("XXI_Aprile_7_858", "209", 300).
origin("XXI_Aprile_7_754", "[109[0]|109[1][0]+20003|109[1][1]]").
enter("XXI_Aprile_7_754", "[109[0]|109[1][0]+20003|109[1][1]]", 0).
exit("XXI_Aprile_7_754", "[109[0]|109[1][0]+20003|109[1][1]]", 35).
enter("XXI_Aprile_7_754", "[116|46]", 35).
exit("XXI_Aprile_7_754", "[116|46]", 130).
enter("XXI_Aprile_7_754", "113", 130).
exit("XXI_Aprile_7_754", "113", 180).
enter("XXI_Aprile_7_754", "209", 180).
exit("XXI_Aprile_7_754", "209", 230).
roundabout("ROUND1", 20).
streetInRoundabout("(77ab)", "ROUND1").
streetInRoundabout("(77ab|77bc)", "ROUND1").
streetInRoundabout("(77ab|77bc|77cd|53cd)", "ROUND1").
streetInRoundabout("(77ab|77bc|77cd)", "ROUND1").
streetInRoundabout("(77ab|77bc|77cd|53cd|53[0])", "ROUND1").
streetInRoundabout("(77ab|77bc|77cd|53cd|53[0]|53[1][0])", "ROUND1").
streetInRoundabout("(77ab|77bc|77cd|53cd|53[0]|53[1][0]|53[1][1][0])", "ROUND1").
streetInRoundabout("(77bc|77cd|53cd|53[0]|53[1][0]|53[1][1][0]|77[1][0])", "ROUND1").
streetInRoundabout("(77bc)", "ROUND1").
streetInRoundabout("(77bc|77cd|53cd)", "ROUND1").
streetInRoundabout("(77bc|77cd)", "ROUND1").
streetInRoundabout("(77bc|77cd|53cd|53[0])", "ROUND1").
streetInRoundabout("(77bc|77cd|53cd|53[0]|53[1][0])", "ROUND1").
streetInRoundabout("(77bc|77cd|53cd|53[0]|53[1][0]|53[1][1][0])", "ROUND1").
streetInRoundabout("(77cd|53cd|53[0]|53[1][0]|53[1][1][0]|77[1][0])", "ROUND1").
streetInRoundabout("(77cd|53cd|53[0]|53[1][0]|53[1][1][0]|77[1][0]|77ab)", "ROUND1").
streetInRoundabout("(77cd|53cd)", "ROUND1").
streetInRoundabout("(77cd)", "ROUND1").
streetInRoundabout("(77cd|53cd|53[0])", "ROUND1").
streetInRoundabout("(77cd|53cd|53[0]|53[1][0])", "ROUND1").
streetInRoundabout("(77cd|53cd|53[0]|53[1][0]|53[1][1][0])", "ROUND1").
streetInRoundabout("(53[0]|53[1][0]|53[1][1][0]|77[1][0])", "ROUND1").
streetInRoundabout("(53[0]|53[1][0]|53[1][1][0]|77[1][0]|77ab)", "ROUND1").
streetInRoundabout("(53[0]|53[1][0]|53[1][1][0]|77[1][0]|77ab|77bc)", "ROUND1").
streetInRoundabout("(53[0]|53[1][0]|53[1][1][0]|77[1][0]|77ab|77bc|77cd)", "ROUND1").
streetInRoundabout("(53[0])", "ROUND1").
streetInRoundabout("(53[0]|53[1][0])", "ROUND1").
streetInRoundabout("(53[0]|53[1][0]|53[1][1][0])", "ROUND1").
streetInRoundabout("(53cd|53[0]|53[1][0]|53[1][1][0]|77[1][0])", "ROUND1").
streetInRoundabout("(53cd|53[0]|53[1][0]|53[1][1][0]|77[1][0]|77ab)", "ROUND1").
streetInRoundabout("(53cd|53[0]|53[1][0]|53[1][1][0]|77[1][0]|77ab|77bc)", "ROUND1").
streetInRoundabout("(53cd)", "ROUND1").
streetInRoundabout("(53cd|53[0])", "ROUND1").
streetInRoundabout("(53cd|53[0]|53[1][0])", "ROUND1").
streetInRoundabout("(53cd|53[0]|53[1][0]|53[1][1][0])", "ROUND1").
streetInRoundabout("(53[1][0]|53[1][1][0]|77[1][0])", "ROUND1").
streetInRoundabout("(53[1][0]|53[1][1][0]|77[1][0]|77ab)", "ROUND1").
streetInRoundabout("(53[1][0]|53[1][1][0]|77[1][0]|77ab|77bc)", "ROUND1").
streetInRoundabout("(53[1][0]|53[1][1][0]|77[1][0]|77ab|77bc|77cd|53cd)", "ROUND1").
streetInRoundabout("(53[1][0]|53[1][1][0]|77[1][0]|77ab|77bc|77cd)", "ROUND1").
streetInRoundabout("(53[1][0])", "ROUND1").
streetInRoundabout("(53[1][0]|53[1][1][0])", "ROUND1").
streetInRoundabout("(53[1][1][0]|77[1][0])", "ROUND1").
streetInRoundabout("(53[1][1][0]|77[1][0]|77ab)", "ROUND1").
streetInRoundabout("(53[1][1][0]|77[1][0]|77ab|77bc)", "ROUND1").
streetInRoundabout("(53[1][1][0]|77[1][0]|77ab|77bc|77cd|53cd)", "ROUND1").
streetInRoundabout("(53[1][1][0]|77[1][0]|77ab|77bc|77cd)", "ROUND1").
streetInRoundabout("(53[1][1][0]|77[1][0]|77ab|77bc|77cd|53cd|53[0])", "ROUND1").
streetInRoundabout("(53[1][1][0])", "ROUND1").
streetInRoundabout("(77[1][0])", "ROUND1").
streetInRoundabout("(77[1][0]|77ab)", "ROUND1").
streetInRoundabout("(77[1][0]|77ab|77bc)", "ROUND1").
streetInRoundabout("(77[1][0]|77ab|77bc|77cd|53cd)", "ROUND1").
streetInRoundabout("(77[1][0]|77ab|77bc|77cd)", "ROUND1").
streetInRoundabout("(77[1][0]|77ab|77bc|77cd|53cd|53[0])", "ROUND1").
streetInRoundabout("(77[1][0]|77ab|77bc|77cd|53cd|53[0]|53[1][0])", "ROUND1").
