route("R1").
streetOnRoute("[317|216]", "R1", 0, 0).
streetOnRoute("226[0]", "R1", 40, 45).
link("[317|216]", "226[0]").
streetOnRoute("226[1][0]", "R1", 50, 80).
link("226[0]", "226[1][0]").
streetOnRoute("226[1][1]", "R1", 55, 85).
link("226[1][0]", "226[1][1]").
streetOnRoute("228[0]", "R1", 95, 155).
link("226[1][1]", "228[0]").
streetOnRoute("228[1][0]", "R1", 100, 175).
link("228[0]", "228[1][0]").
streetOnRoute("228[1][1]", "R1", 105, 190).
link("228[1][0]", "228[1][1]").
streetOnRoute("[482|213]", "R1", 145, 245).
link("228[1][1]", "[482|213]").
route("R2").
streetOnRoute("[317|216]", "R2", 0, 0).
streetOnRoute("316", "R2", 40, 45).
link("[317|216]", "316").
streetOnRoute("313", "R2", 50, 55).
link("316", "313").
streetOnRoute("310", "R2", 60, 65).
link("313", "310").
streetOnRoute("335", "R2", 70, 75).
link("310", "335").
streetOnRoute("159", "R2", 110, 115).
link("335", "159").
streetOnRoute("[364|160]", "R2", 120, 125).
link("159", "[364|160]").
streetOnRoute("[144|145]", "R2", 160, 165).
link("[364|160]", "[144|145]").
streetOnRoute("[148|149]", "R2", 170, 175).
link("[144|145]", "[148|149]").
streetOnRoute("[152|153]", "R2", 185, 190).
link("[148|149]", "[152|153]").
streetOnRoute("228[0]", "R2", 225, 230).
link("[152|153]", "228[0]").
streetOnRoute("228[1][0]", "R2", 230, 235).
link("228[0]", "228[1][0]").
streetOnRoute("228[1][1]", "R2", 235, 240).
link("228[1][0]", "228[1][1]").
streetOnRoute("[482|213]", "R2", 275, 285).
link("228[1][1]", "[482|213]").
route("R3").
streetOnRoute("[317|216]", "R3", 0, 0).
streetOnRoute("226[0]", "R3", 40, 45).
link("[317|216]", "226[0]").
streetOnRoute("226[1][0]", "R3", 50, 80).
link("226[0]", "226[1][0]").
streetOnRoute("226[1][1]", "R3", 55, 85).
link("226[1][0]", "226[1][1]").
streetOnRoute("[154|155]", "R3", 95, 155).
link("226[1][1]", "[154|155]").
streetOnRoute("[150|151]", "R3", 105, 165).
link("[154|155]", "[150|151]").
streetOnRoute("[146|147]", "R3", 120, 180).
link("[150|151]", "[146|147]").
streetOnRoute("161", "R3", 160, 220).
link("[146|147]", "161").
streetOnRoute("426", "R3", 205, 265).
link("161", "426").
streetOnRoute("430", "R3", 215, 275).
link("426", "430").
streetOnRoute("446", "R3", 225, 285).
link("430", "446").
streetOnRoute("464", "R3", 235, 295).
link("446", "464").
streetOnRoute("[482|213]", "R3", 275, 335).
link("464", "[482|213]").
route("R4").
streetOnRoute("[317|216]", "R4", 0, 0).
streetOnRoute("320", "R4", 40, 45).
link("[317|216]", "320").
streetOnRoute("[565|134]", "R4", 50, 55).
link("320", "[565|134]").
streetOnRoute("576", "R4", 65, 70).
link("[565|134]", "576").
streetOnRoute("(581[1][1])", "R4", 100, 105).
link("576", "(581[1][1])").
streetOnRoute("312", "R4", 105, 115).
link("(581[1][1])", "312").
streetOnRoute("575", "R4", 120, 130).
link("312", "575").
streetOnRoute("159", "R4", 160, 170).
link("575", "159").
streetOnRoute("[364|160]", "R4", 170, 180).
link("159", "[364|160]").
streetOnRoute("161", "R4", 210, 220).
link("[364|160]", "161").
streetOnRoute("426", "R4", 255, 265).
link("161", "426").
streetOnRoute("430", "R4", 265, 275).
link("426", "430").
streetOnRoute("446", "R4", 275, 285).
link("430", "446").
streetOnRoute("464", "R4", 285, 295).
link("446", "464").
streetOnRoute("[482|213]", "R4", 325, 335).
link("464", "[482|213]").
route("R5").
streetOnRoute("[317|216]", "R5", 0, 0).
streetOnRoute("316", "R5", 40, 45).
link("[317|216]", "316").
streetOnRoute("313", "R5", 50, 55).
link("316", "313").
streetOnRoute("310", "R5", 60, 65).
link("313", "310").
streetOnRoute("335", "R5", 70, 75).
link("310", "335").
streetOnRoute("159", "R5", 110, 115).
link("335", "159").
streetOnRoute("[364|160]", "R5", 120, 125).
link("159", "[364|160]").
streetOnRoute("[11|12]", "R5", 160, 165).
link("[364|160]", "[11|12]").
streetOnRoute("[13|14]", "R5", 170, 175).
link("[11|12]", "[13|14]").
streetOnRoute("[15|16]", "R5", 185, 190).
link("[13|14]", "[15|16]").
streetOnRoute("(3)", "R5", 195, 200).
link("[15|16]", "(3)").
streetOnRoute("26", "R5", 200, 210).
link("(3)", "26").
streetOnRoute("385", "R5", 210, 220).
link("26", "385").
streetOnRoute("(252[0])", "R5", 220, 230).
link("385", "(252[0])").
streetOnRoute("250", "R5", 225, 240).
link("(252[0])", "250").
streetOnRoute("396", "R5", 235, 250).
link("250", "396").
streetOnRoute("412", "R5", 245, 260).
link("396", "412").
streetOnRoute("418", "R5", 255, 270).
link("412", "418").
streetOnRoute("426", "R5", 295, 310).
link("418", "426").
streetOnRoute("430", "R5", 305, 320).
link("426", "430").
streetOnRoute("446", "R5", 315, 330).
link("430", "446").
streetOnRoute("464", "R5", 325, 340).
link("446", "464").
streetOnRoute("[482|213]", "R5", 365, 380).
link("464", "[482|213]").
route("R6").
streetOnRoute("[317|216]", "R6", 0, 0).
streetOnRoute("316", "R6", 40, 45).
link("[317|216]", "316").
streetOnRoute("313", "R6", 50, 55).
link("316", "313").
streetOnRoute("310", "R6", 60, 65).
link("313", "310").
streetOnRoute("335", "R6", 70, 75).
link("310", "335").
streetOnRoute("308", "R6", 110, 115).
link("335", "308").
streetOnRoute("305", "R6", 120, 125).
link("308", "305").
streetOnRoute("303", "R6", 130, 135).
link("305", "303").
streetOnRoute("302", "R6", 140, 145).
link("303", "302").
streetOnRoute("30", "R6", 180, 185).
link("302", "30").
streetOnRoute("379", "R6", 190, 195).
link("30", "379").
streetOnRoute("(2[1][1])", "R6", 200, 205).
link("379", "(2[1][1])").
streetOnRoute("[5|6]", "R6", 205, 215).
link("(2[1][1])", "[5|6]").
streetOnRoute("[7|8]", "R6", 215, 225).
link("[5|6]", "[7|8]").
streetOnRoute("[9|10]", "R6", 230, 240).
link("[7|8]", "[9|10]").
streetOnRoute("161", "R6", 270, 280).
link("[9|10]", "161").
streetOnRoute("426", "R6", 315, 325).
link("161", "426").
streetOnRoute("430", "R6", 325, 335).
link("426", "430").
streetOnRoute("446", "R6", 335, 345).
link("430", "446").
streetOnRoute("464", "R6", 345, 355).
link("446", "464").
streetOnRoute("[482|213]", "R6", 385, 395).
link("464", "[482|213]").
route("R7").
streetOnRoute("[317|216]", "R7", 0, 0).
streetOnRoute("320", "R7", 40, 45).
link("[317|216]", "320").
streetOnRoute("[565|134]", "R7", 50, 55).
link("320", "[565|134]").
streetOnRoute("576", "R7", 65, 70).
link("[565|134]", "576").
streetOnRoute("(581[1][1]|579.0|577[0])", "R7", 100, 105).
link("576", "(581[1][1]|579.0|577[0])").
streetOnRoute("[566|552]", "R7", 105, 110).
link("(581[1][1]|579.0|577[0])", "[566|552]").
streetOnRoute("[497|338[0]]", "R7", 135, 140).
link("[566|552]", "[497|338[0]]").
streetOnRoute("338[1][0]", "R7", 150, 155).
link("[497|338[0]]", "338[1][0]").
streetOnRoute("338[1][1]", "R7", 155, 160).
link("338[1][0]", "338[1][1]").
streetOnRoute("30", "R7", 195, 200).
link("338[1][1]", "30").
streetOnRoute("379", "R7", 205, 210).
link("30", "379").
streetOnRoute("(2[1][1])", "R7", 215, 220).
link("379", "(2[1][1])").
streetOnRoute("[5|6]", "R7", 220, 230).
link("(2[1][1])", "[5|6]").
streetOnRoute("[7|8]", "R7", 230, 240).
link("[5|6]", "[7|8]").
streetOnRoute("[9|10]", "R7", 245, 255).
link("[7|8]", "[9|10]").
streetOnRoute("[144|145]", "R7", 285, 295).
link("[9|10]", "[144|145]").
streetOnRoute("[148|149]", "R7", 295, 305).
link("[144|145]", "[148|149]").
streetOnRoute("[152|153]", "R7", 310, 320).
link("[148|149]", "[152|153]").
streetOnRoute("228[0]", "R7", 350, 360).
link("[152|153]", "228[0]").
streetOnRoute("228[1][0]", "R7", 355, 365).
link("228[0]", "228[1][0]").
streetOnRoute("228[1][1]", "R7", 360, 370).
link("228[1][0]", "228[1][1]").
streetOnRoute("[482|213]", "R7", 400, 410).
link("228[1][1]", "[482|213]").
route("R8").
streetOnRoute("[317|216]", "R8", 0, 0).
streetOnRoute("226[0]", "R8", 40, 45).
link("[317|216]", "226[0]").
streetOnRoute("226[1][0]", "R8", 50, 80).
link("226[0]", "226[1][0]").
streetOnRoute("226[1][1]", "R8", 55, 85).
link("226[1][0]", "226[1][1]").
streetOnRoute("[154|155]", "R8", 95, 155).
link("226[1][1]", "[154|155]").
streetOnRoute("[150|151]", "R8", 105, 165).
link("[154|155]", "[150|151]").
streetOnRoute("[146|147]", "R8", 120, 180).
link("[150|151]", "[146|147]").
streetOnRoute("[11|12]", "R8", 160, 220).
link("[146|147]", "[11|12]").
streetOnRoute("[13|14]", "R8", 170, 230).
link("[11|12]", "[13|14]").
streetOnRoute("[15|16]", "R8", 185, 245).
link("[13|14]", "[15|16]").
streetOnRoute("(3)", "R8", 195, 255).
link("[15|16]", "(3)").
streetOnRoute("26", "R8", 200, 265).
link("(3)", "26").
streetOnRoute("385", "R8", 210, 275).
link("26", "385").
streetOnRoute("(252[0]|252[1][0]|252[1][1])", "R8", 220, 285).
link("385", "(252[0]|252[1][0]|252[1][1])").
streetOnRoute("[249|139]", "R8", 225, 290).
link("(252[0]|252[1][0]|252[1][1])", "[249|139]").
streetOnRoute("138", "R8", 245, 310).
link("[249|139]", "138").
streetOnRoute("(470[1])", "R8", 280, 345).
link("138", "(470[1])").
streetOnRoute("479", "R8", 285, 355).
link("(470[1])", "479").
streetOnRoute("480", "R8", 320, 390).
link("479", "480").
streetOnRoute("488", "R8", 335, 405).
link("480", "488").
streetOnRoute("[482|213]", "R8", 375, 445).
link("488", "[482|213]").
route("R9").
streetOnRoute("[317|216]", "R9", 0, 0).
streetOnRoute("316", "R9", 40, 45).
link("[317|216]", "316").
streetOnRoute("313", "R9", 50, 55).
link("316", "313").
streetOnRoute("310", "R9", 60, 65).
link("313", "310").
streetOnRoute("335", "R9", 70, 75).
link("310", "335").
streetOnRoute("159", "R9", 110, 115).
link("335", "159").
streetOnRoute("[364|160]", "R9", 120, 125).
link("159", "[364|160]").
streetOnRoute("161", "R9", 160, 165).
link("[364|160]", "161").
streetOnRoute("426", "R9", 205, 210).
link("161", "426").
streetOnRoute("430", "R9", 215, 220).
link("426", "430").
streetOnRoute("446", "R9", 225, 230).
link("430", "446").
streetOnRoute("464", "R9", 235, 240).
link("446", "464").
streetOnRoute("[482|213]", "R9", 275, 280).
link("464", "[482|213]").
route("R10").
streetOnRoute("[317|216]", "R10", 0, 0).
streetOnRoute("226[0]", "R10", 40, 45).
link("[317|216]", "226[0]").
streetOnRoute("226[1][0]", "R10", 50, 80).
link("226[0]", "226[1][0]").
streetOnRoute("226[1][1]", "R10", 55, 85).
link("226[1][0]", "226[1][1]").
streetOnRoute("[154|155]", "R10", 95, 155).
link("226[1][1]", "[154|155]").
streetOnRoute("[150|151]", "R10", 105, 165).
link("[154|155]", "[150|151]").
streetOnRoute("[146|147]", "R10", 120, 180).
link("[150|151]", "[146|147]").
streetOnRoute("161", "R10", 160, 220).
link("[146|147]", "161").
streetOnRoute("[429|143]", "R10", 205, 265).
link("161", "[429|143]").
streetOnRoute("479", "R10", 225, 285).
link("[429|143]", "479").
streetOnRoute("480", "R10", 260, 320).
link("479", "480").
streetOnRoute("488", "R10", 275, 335).
link("480", "488").
streetOnRoute("[482|213]", "R10", 315, 375).
link("488", "[482|213]").
route("R11").
streetOnRoute("[317|216]", "R11", 0, 0).
streetOnRoute("320", "R11", 40, 45).
link("[317|216]", "320").
streetOnRoute("[565|134]", "R11", 50, 55).
link("320", "[565|134]").
streetOnRoute("576", "R11", 65, 70).
link("[565|134]", "576").
streetOnRoute("(581[1][1])", "R11", 100, 105).
link("576", "(581[1][1])").
streetOnRoute("312", "R11", 105, 115).
link("(581[1][1])", "312").
streetOnRoute("575", "R11", 120, 130).
link("312", "575").
streetOnRoute("159", "R11", 160, 170).
link("575", "159").
streetOnRoute("[364|160]", "R11", 170, 180).
link("159", "[364|160]").
streetOnRoute("161", "R11", 210, 220).
link("[364|160]", "161").
streetOnRoute("[429|143]", "R11", 255, 265).
link("161", "[429|143]").
streetOnRoute("479", "R11", 275, 285).
link("[429|143]", "479").
streetOnRoute("480", "R11", 310, 320).
link("479", "480").
streetOnRoute("488", "R11", 325, 335).
link("480", "488").
streetOnRoute("[482|213]", "R11", 365, 375).
link("488", "[482|213]").
route("R12").
streetOnRoute("[317|216]", "R12", 0, 0).
streetOnRoute("316", "R12", 40, 45).
link("[317|216]", "316").
streetOnRoute("313", "R12", 50, 55).
link("316", "313").
streetOnRoute("310", "R12", 60, 65).
link("313", "310").
streetOnRoute("335", "R12", 70, 75).
link("310", "335").
streetOnRoute("308", "R12", 110, 115).
link("335", "308").
streetOnRoute("305", "R12", 120, 125).
link("308", "305").
streetOnRoute("303", "R12", 130, 135).
link("305", "303").
streetOnRoute("302", "R12", 140, 145).
link("303", "302").
streetOnRoute("30", "R12", 180, 185).
link("302", "30").
streetOnRoute("379", "R12", 190, 195).
link("30", "379").
streetOnRoute("(2[1][1]|3)", "R12", 200, 205).
link("379", "(2[1][1]|3)").
streetOnRoute("26", "R12", 205, 215).
link("(2[1][1]|3)", "26").
streetOnRoute("385", "R12", 215, 225).
link("26", "385").
streetOnRoute("(252[0])", "R12", 225, 235).
link("385", "(252[0])").
streetOnRoute("250", "R12", 230, 245).
link("(252[0])", "250").
streetOnRoute("396", "R12", 240, 255).
link("250", "396").
streetOnRoute("412", "R12", 250, 265).
link("396", "412").
streetOnRoute("418", "R12", 260, 275).
link("412", "418").
streetOnRoute("426", "R12", 300, 315).
link("418", "426").
streetOnRoute("430", "R12", 310, 325).
link("426", "430").
streetOnRoute("446", "R12", 320, 335).
link("430", "446").
streetOnRoute("464", "R12", 330, 345).
link("446", "464").
streetOnRoute("[482|213]", "R12", 370, 385).
link("464", "[482|213]").
route("R13").
streetOnRoute("[317|216]", "R13", 0, 0).
streetOnRoute("316", "R13", 40, 45).
link("[317|216]", "316").
streetOnRoute("313", "R13", 50, 55).
link("316", "313").
streetOnRoute("310", "R13", 60, 65).
link("313", "310").
streetOnRoute("335", "R13", 70, 75).
link("310", "335").
streetOnRoute("308", "R13", 110, 115).
link("335", "308").
streetOnRoute("305", "R13", 120, 125).
link("308", "305").
streetOnRoute("303", "R13", 130, 135).
link("305", "303").
streetOnRoute("302", "R13", 140, 145).
link("303", "302").
streetOnRoute("299", "R13", 180, 185).
link("302", "299").
streetOnRoute("31[0]", "R13", 190, 195).
link("299", "31[0]").
streetOnRoute("31[1][0]", "R13", 195, 200).
link("31[0]", "31[1][0]").
streetOnRoute("31[1][1]", "R13", 200, 205).
link("31[1][0]", "31[1][1]").
streetOnRoute("18", "R13", 205, 210).
link("31[1][1]", "18").
streetOnRoute("(19[0])", "R13", 210, 215).
link("18", "(19[0])").
streetOnRoute("1", "R13", 215, 225).
link("(19[0])", "1").
streetOnRoute("(2[0]|2[1][0]|2[1][1])", "R13", 225, 235).
link("1", "(2[0]|2[1][0]|2[1][1])").
streetOnRoute("[5|6]", "R13", 230, 240).
link("(2[0]|2[1][0]|2[1][1])", "[5|6]").
streetOnRoute("[7|8]", "R13", 240, 250).
link("[5|6]", "[7|8]").
streetOnRoute("[9|10]", "R13", 255, 265).
link("[7|8]", "[9|10]").
streetOnRoute("161", "R13", 295, 305).
link("[9|10]", "161").
streetOnRoute("426", "R13", 340, 350).
link("161", "426").
streetOnRoute("430", "R13", 350, 360).
link("426", "430").
streetOnRoute("446", "R13", 360, 370).
link("430", "446").
streetOnRoute("464", "R13", 370, 380).
link("446", "464").
streetOnRoute("[482|213]", "R13", 410, 420).
link("464", "[482|213]").
route("R14").
streetOnRoute("[317|216]", "R14", 0, 0).
streetOnRoute("320", "R14", 40, 45).
link("[317|216]", "320").
streetOnRoute("[565|134]", "R14", 50, 55).
link("320", "[565|134]").
streetOnRoute("576", "R14", 65, 70).
link("[565|134]", "576").
streetOnRoute("(581[1][1])", "R14", 100, 105).
link("576", "(581[1][1])").
streetOnRoute("312", "R14", 105, 115).
link("(581[1][1])", "312").
streetOnRoute("575", "R14", 120, 130).
link("312", "575").
streetOnRoute("159", "R14", 160, 170).
link("575", "159").
streetOnRoute("[364|160]", "R14", 170, 180).
link("159", "[364|160]").
streetOnRoute("[144|145]", "R14", 210, 220).
link("[364|160]", "[144|145]").
streetOnRoute("[148|149]", "R14", 220, 230).
link("[144|145]", "[148|149]").
streetOnRoute("[152|153]", "R14", 235, 245).
link("[148|149]", "[152|153]").
streetOnRoute("228[0]", "R14", 275, 285).
link("[152|153]", "228[0]").
streetOnRoute("228[1][0]", "R14", 280, 290).
link("228[0]", "228[1][0]").
streetOnRoute("228[1][1]", "R14", 285, 295).
link("228[1][0]", "228[1][1]").
streetOnRoute("[482|213]", "R14", 325, 335).
link("228[1][1]", "[482|213]").
route("R15").
streetOnRoute("[317|216]", "R15", 0, 0).
streetOnRoute("226[0]", "R15", 40, 45).
link("[317|216]", "226[0]").
streetOnRoute("226[1][0]", "R15", 50, 80).
link("226[0]", "226[1][0]").
streetOnRoute("226[1][1]", "R15", 55, 85).
link("226[1][0]", "226[1][1]").
streetOnRoute("[154|155]", "R15", 95, 155).
link("226[1][1]", "[154|155]").
streetOnRoute("[150|151]", "R15", 105, 165).
link("[154|155]", "[150|151]").
streetOnRoute("[146|147]", "R15", 120, 180).
link("[150|151]", "[146|147]").
streetOnRoute("[11|12]", "R15", 160, 220).
link("[146|147]", "[11|12]").
streetOnRoute("[13|14]", "R15", 170, 230).
link("[11|12]", "[13|14]").
streetOnRoute("[15|16]", "R15", 185, 245).
link("[13|14]", "[15|16]").
streetOnRoute("(3)", "R15", 195, 255).
link("[15|16]", "(3)").
streetOnRoute("26", "R15", 200, 265).
link("(3)", "26").
streetOnRoute("385", "R15", 210, 275).
link("26", "385").
streetOnRoute("(252[0])", "R15", 220, 285).
link("385", "(252[0])").
streetOnRoute("250", "R15", 225, 295).
link("(252[0])", "250").
streetOnRoute("396", "R15", 235, 305).
link("250", "396").
streetOnRoute("412", "R15", 245, 315).
link("396", "412").
streetOnRoute("418", "R15", 255, 325).
link("412", "418").
streetOnRoute("426", "R15", 295, 365).
link("418", "426").
streetOnRoute("430", "R15", 305, 375).
link("426", "430").
streetOnRoute("446", "R15", 315, 385).
link("430", "446").
streetOnRoute("464", "R15", 325, 395).
link("446", "464").
streetOnRoute("[482|213]", "R15", 365, 435).
link("464", "[482|213]").
route("R16").
streetOnRoute("226[1][1]", "R16", 0, 0).
streetOnRoute("228[0]", "R16", 40, 70).
link("226[1][1]", "228[0]").
streetOnRoute("228[1][0]", "R16", 45, 100).
link("228[0]", "228[1][0]").
streetOnRoute("228[1][1]", "R16", 50, 190).
link("228[1][0]", "228[1][1]").
streetOnRoute("[482|213]", "R16", 90, 260).
link("228[1][1]", "[482|213]").
route("R17").
streetOnRoute("161", "R17", 0, 0).
streetOnRoute("426", "R17", 45, 45).
link("161", "426").
streetOnRoute("430", "R17", 55, 55).
link("426", "430").
streetOnRoute("446", "R17", 65, 65).
link("430", "446").
streetOnRoute("464", "R17", 75, 75).
link("446", "464").
streetOnRoute("[482|213]", "R17", 115, 115).
link("464", "[482|213]").
route("R18").
streetOnRoute("479", "R18", 0, 0).
streetOnRoute("480", "R18", 35, 35).
link("479", "480").
streetOnRoute("488", "R18", 50, 50).
link("480", "488").
streetOnRoute("[482|213]", "R18", 90, 90).
link("488", "[482|213]").
route("R19").
streetOnRoute("228[1][1]", "R19", 0, 0).
streetOnRoute("[482|213]", "R19", 40, 70).
link("228[1][1]", "[482|213]").
route("R20").
streetOnRoute("226[0]", "R20", 0, 0).
streetOnRoute("226[1][0]", "R20", 10, 75).
link("226[0]", "226[1][0]").
streetOnRoute("226[1][1]", "R20", 15, 85).
link("226[1][0]", "226[1][1]").
streetOnRoute("228[0]", "R20", 55, 155).
link("226[1][1]", "228[0]").
streetOnRoute("228[1][0]", "R20", 60, 175).
link("228[0]", "228[1][0]").
streetOnRoute("228[1][1]", "R20", 65, 190).
link("228[1][0]", "228[1][1]").
streetOnRoute("[482|213]", "R20", 105, 260).
link("228[1][1]", "[482|213]").
route("R21").
streetOnRoute("226[1][1]", "R21", 0, 0).
streetOnRoute("228[0]", "R21", 40, 70).
link("226[1][1]", "228[0]").
streetOnRoute("228[1][0]", "R21", 45, 100).
link("228[0]", "228[1][0]").
streetOnRoute("228[1][1]", "R21", 50, 190).
link("228[1][0]", "228[1][1]").
streetOnRoute("481", "R21", 90, 260).
link("228[1][1]", "481").
streetOnRoute("493", "R21", 100, 270).
link("481", "493").
streetOnRoute("[186|522]", "R21", 115, 285).
link("493", "[186|522]").
route("R22").
streetOnRoute("228[1][1]", "R22", 0, 0).
streetOnRoute("481", "R22", 40, 70).
link("228[1][1]", "481").
streetOnRoute("493", "R22", 50, 80).
link("481", "493").
streetOnRoute("[186|522]", "R22", 65, 95).
link("493", "[186|522]").
route("R23").
streetOnRoute("228[1][0]", "R23", 0, 55).
streetOnRoute("228[1][1]", "R23", 5, 145).
link("228[1][0]", "228[1][1]").
streetOnRoute("[482|213]", "R23", 45, 215).
link("228[1][1]", "[482|213]").
route("R24").
streetOnRoute("228[0]", "R24", 0, 0).
streetOnRoute("228[1][0]", "R24", 5, 60).
link("228[0]", "228[1][0]").
streetOnRoute("228[1][1]", "R24", 10, 150).
link("228[1][0]", "228[1][1]").
streetOnRoute("[482|213]", "R24", 50, 220).
link("228[1][1]", "[482|213]").
route("R25").
streetOnRoute("161", "R25", 0, 0).
streetOnRoute("[429|143]", "R25", 45, 45).
link("161", "[429|143]").
streetOnRoute("479", "R25", 65, 65).
link("[429|143]", "479").
streetOnRoute("480", "R25", 100, 100).
link("479", "480").
streetOnRoute("488", "R25", 115, 115).
link("480", "488").
streetOnRoute("[482|213]", "R25", 155, 155).
link("488", "[482|213]").
route("R26").
streetOnRoute("302", "R26", 0, 0).
streetOnRoute("30", "R26", 40, 40).
link("302", "30").
streetOnRoute("379", "R26", 50, 50).
link("30", "379").
streetOnRoute("(2[1][1])", "R26", 60, 80).
link("379", "(2[1][1])").
streetOnRoute("[5|6]", "R26", 65, 100).
link("(2[1][1])", "[5|6]").
streetOnRoute("[7|8]", "R26", 75, 110).
link("[5|6]", "[7|8]").
streetOnRoute("[9|10]", "R26", 90, 125).
link("[7|8]", "[9|10]").
streetOnRoute("161", "R26", 130, 165).
link("[9|10]", "161").
streetOnRoute("426", "R26", 175, 210).
link("161", "426").
streetOnRoute("430", "R26", 185, 220).
link("426", "430").
streetOnRoute("446", "R26", 195, 230).
link("430", "446").
streetOnRoute("464", "R26", 205, 240).
link("446", "464").
streetOnRoute("[482|213]", "R26", 245, 280).
link("464", "[482|213]").
route("R27").
streetOnRoute("[152|153]", "R27", 0, 0).
streetOnRoute("228[0]", "R27", 40, 60).
link("[152|153]", "228[0]").
streetOnRoute("228[1][0]", "R27", 45, 100).
link("228[0]", "228[1][0]").
streetOnRoute("228[1][1]", "R27", 50, 190).
link("228[1][0]", "228[1][1]").
streetOnRoute("[482|213]", "R27", 90, 260).
link("228[1][1]", "[482|213]").
destination("WestA509ToAvebury.75", "[482|213]").
destination("WestA509ToAvebury.60", "[482|213]").
destination("EastSilburyToEastAvebury.110", "[482|213]").
destination("EastA509ToH6.194", "[186|522]").
destination("EastSilburyToEastAvebury.129", "[482|213]").
destination("EastSilburyToEastAvebury.137", "[482|213]").
destination("WestA509ToAvebury.134", "[482|213]").
destination("EastSilburyToEastAvebury.134", "[482|213]").
destination("EastSilburyToEastAvebury.60", "[482|213]").
destination("EastSilburyToEastAvebury.143", "[482|213]").
destination("EastSilburyToEastAvebury.105", "[482|213]").
destination("EastA509ToH6.190", "[186|522]").
destination("EastSilburyToEastAvebury.146", "[482|213]").
destination("EastSilburyToEastAvebury.116", "[482|213]").
destination("EastA509ToH6.197", "[186|522]").
destination("EastSilburyToEastAvebury.115", "[482|213]").
destination("EastSilburyToEastAvebury.100", "[482|213]").
destination("EastSilburyToEastAvebury.130", "[482|213]").
destination("WestA509ToAvebury.94", "[482|213]").
destination("WestA509ToAvebury.124", "[482|213]").
destination("EastSilburyToEastAvebury.141", "[482|213]").
destination("WestA509ToAvebury.156", "[482|213]").
destination("WestA509ToAvebury.193", "[482|213]").
destination("EastA509ToH6.191", "[186|522]").
destination("EastA509ToH6.187", "[186|522]").
destination("EastSilburyToEastAvebury.151", "[482|213]").
destination("EastSilburyToEastAvebury.133", "[482|213]").
destination("EastSilburyToEastAvebury.149", "[482|213]").
destination("EastSilburyToEastAvebury.114", "[482|213]").
destination("EastSilburyToEastAvebury.90", "[482|213]").
destination("WestA509ToAvebury.181", "[482|213]").
destination("WestA509ToAvebury.169", "[482|213]").
destination("EastSilburyToEastAvebury.140", "[482|213]").
destination("EastSilburyToEastAvebury.132", "[482|213]").
destination("EastSilburyToEastAvebury.150", "[482|213]").
destination("EastSilburyToEastAvebury.79", "[482|213]").
destination("EastSilburyToEastAvebury.142", "[482|213]").
destination("WestA509ToAvebury.196", "[482|213]").
destination("WestA509ToAvebury.194", "[482|213]").
destination("EastA509ToH6.188", "[186|522]").
destination("EastSilburyToEastAvebury.139", "[482|213]").
destination("EastSilburyToEastAvebury.145", "[482|213]").
destination("EastSilburyToEastAvebury.147", "[482|213]").
destination("EastSilburyToEastAvebury.135", "[482|213]").
destination("WestA509ToAvebury.103", "[482|213]").
destination("WestA509ToAvebury.99", "[482|213]").
destination("EastA509ToH6.198", "[186|522]").
destination("EastA509ToH6.195", "[186|522]").
destination("EastA509ToH6.186", "[186|522]").
destination("EastSilburyToEastAvebury.54", "[482|213]").
destination("WestA509ToAvebury.178", "[482|213]").
destination("EastSilburyToEastAvebury.138", "[482|213]").
destination("EastSilburyToEastAvebury.112", "[482|213]").
destination("EastSilburyToEastAvebury.136", "[482|213]").
destination("EastA509ToH6.199", "[186|522]").
destination("WestA509ToAvebury.164", "[482|213]").
destination("EastA509ToH6.193", "[186|522]").
destination("EastSilburyToEastAvebury.61", "[482|213]").
destination("WestA509ToAvebury.70", "[482|213]").
destination("EastA509ToH6.196", "[186|522]").
destination("WestA509ToAvebury.163", "[482|213]").
destination("EastSilburyToEastAvebury.91", "[482|213]").
destination("EastSilburyToEastAvebury.85", "[482|213]").
destination("WestA509ToAvebury.120", "[482|213]").
destination("EastSilburyToEastAvebury.148", "[482|213]").
destination("EastSilburyToEastAvebury.82", "[482|213]").
destination("EastSilburyToEastAvebury.113", "[482|213]").
destination("EastSilburyToEastAvebury.131", "[482|213]").
destination("EastSilburyToEastAvebury.144", "[482|213]").
destination("WestA509ToAvebury.189", "[482|213]").
destination("EastA509ToH6.189", "[186|522]").
destination("WestA509ToAvebury.66", "[482|213]").
destination("EastSilburyToEastAvebury.108", "[482|213]").
destination("EastSilburyToEastAvebury.89", "[482|213]").
destination("EastA509ToH6.192", "[186|522]").
vehicle("WestA509ToAvebury.75", 0).
vehicle("EastSilburyToEastAvebury.139", 0).
vehicle("EastSilburyToEastAvebury.145", 0).
vehicle("EastSilburyToEastAvebury.147", 0).
vehicle("EastSilburyToEastAvebury.135", 0).
vehicle("WestA509ToAvebury.103", 0).
vehicle("WestA509ToAvebury.60", 0).
vehicle("WestA509ToAvebury.99", 0).
vehicle("EastA509ToH6.198", 0).
vehicle("EastA509ToH6.195", 0).
vehicle("EastA509ToH6.192", 0).
vehicle("EastSilburyToEastAvebury.110", 0).
vehicle("EastA509ToH6.186", 0).
vehicle("EastA509ToH6.194", 0).
vehicle("EastSilburyToEastAvebury.54", 0).
vehicle("EastSilburyToEastAvebury.129", 0).
vehicle("EastSilburyToEastAvebury.137", 0).
vehicle("WestA509ToAvebury.134", 0).
vehicle("EastSilburyToEastAvebury.134", 0).
vehicle("WestA509ToAvebury.178", 0).
vehicle("EastSilburyToEastAvebury.60", 0).
vehicle("EastSilburyToEastAvebury.143", 0).
vehicle("EastSilburyToEastAvebury.105", 0).
vehicle("EastSilburyToEastAvebury.138", 0).
vehicle("EastA509ToH6.190", 0).
vehicle("EastSilburyToEastAvebury.112", 0).
vehicle("EastSilburyToEastAvebury.146", 0).
vehicle("EastSilburyToEastAvebury.116", 0).
vehicle("EastA509ToH6.197", 0).
vehicle("EastSilburyToEastAvebury.115", 0).
vehicle("EastSilburyToEastAvebury.100", 0).
vehicle("EastSilburyToEastAvebury.130", 0).
vehicle("EastSilburyToEastAvebury.136", 0).
vehicle("WestA509ToAvebury.94", 0).
vehicle("WestA509ToAvebury.124", 0).
vehicle("EastSilburyToEastAvebury.141", 0).
vehicle("WestA509ToAvebury.156", 0).
vehicle("WestA509ToAvebury.193", 0).
vehicle("EastA509ToH6.199", 0).
vehicle("WestA509ToAvebury.164", 0).
vehicle("EastA509ToH6.193", 0).
vehicle("EastSilburyToEastAvebury.61", 0).
vehicle("WestA509ToAvebury.70", 0).
vehicle("EastA509ToH6.196", 0).
vehicle("EastA509ToH6.191", 0).
vehicle("EastSilburyToEastAvebury.108", 0).
vehicle("EastA509ToH6.187", 0).
vehicle("WestA509ToAvebury.163", 0).
vehicle("EastSilburyToEastAvebury.91", 0).
vehicle("EastSilburyToEastAvebury.133", 0).
vehicle("EastSilburyToEastAvebury.85", 0).
vehicle("EastSilburyToEastAvebury.149", 0).
vehicle("EastSilburyToEastAvebury.114", 0).
vehicle("EastSilburyToEastAvebury.90", 0).
vehicle("WestA509ToAvebury.181", 0).
vehicle("WestA509ToAvebury.169", 0).
vehicle("EastSilburyToEastAvebury.140", 0).
vehicle("WestA509ToAvebury.120", 0).
vehicle("EastSilburyToEastAvebury.148", 0).
vehicle("EastSilburyToEastAvebury.82", 0).
vehicle("EastSilburyToEastAvebury.132", 0).
vehicle("EastSilburyToEastAvebury.150", 0).
vehicle("EastSilburyToEastAvebury.113", 0).
vehicle("EastSilburyToEastAvebury.131", 0).
vehicle("EastSilburyToEastAvebury.144", 0).
vehicle("EastSilburyToEastAvebury.79", 0).
vehicle("WestA509ToAvebury.189", 0).
vehicle("EastA509ToH6.189", 0).
vehicle("WestA509ToAvebury.66", 0).
vehicle("EastSilburyToEastAvebury.142", 0).
vehicle("WestA509ToAvebury.196", 0).
vehicle("EastSilburyToEastAvebury.89", 0).
vehicle("WestA509ToAvebury.194", 0).
vehicle("EastA509ToH6.188", 0).
origin("EastSilburyToEastAvebury.151", "[317|216]").
vehicle("EastSilburyToEastAvebury.151", 1).
possibleRouteOfVehicle("EastSilburyToEastAvebury.151", "R1").
possibleRouteOfVehicle("EastSilburyToEastAvebury.151", "R2").
possibleRouteOfVehicle("EastSilburyToEastAvebury.151", "R3").
possibleRouteOfVehicle("EastSilburyToEastAvebury.151", "R4").
possibleRouteOfVehicle("EastSilburyToEastAvebury.151", "R5").
possibleRouteOfVehicle("EastSilburyToEastAvebury.151", "R6").
possibleRouteOfVehicle("EastSilburyToEastAvebury.151", "R7").
possibleRouteOfVehicle("EastSilburyToEastAvebury.151", "R8").
possibleRouteOfVehicle("EastSilburyToEastAvebury.151", "R9").
possibleRouteOfVehicle("EastSilburyToEastAvebury.151", "R10").
possibleRouteOfVehicle("EastSilburyToEastAvebury.151", "R11").
possibleRouteOfVehicle("EastSilburyToEastAvebury.151", "R12").
possibleRouteOfVehicle("EastSilburyToEastAvebury.151", "R13").
possibleRouteOfVehicle("EastSilburyToEastAvebury.151", "R14").
possibleRouteOfVehicle("EastSilburyToEastAvebury.151", "R15").
possibleRouteOfVehicle("WestA509ToAvebury.75", "R16").
possibleRouteOfVehicle("EastSilburyToEastAvebury.139", "R1").
possibleRouteOfVehicle("EastSilburyToEastAvebury.145", "R17").
possibleRouteOfVehicle("EastSilburyToEastAvebury.147", "R18").
possibleRouteOfVehicle("EastSilburyToEastAvebury.135", "R1").
possibleRouteOfVehicle("WestA509ToAvebury.103", "R16").
possibleRouteOfVehicle("WestA509ToAvebury.60", "R19").
possibleRouteOfVehicle("WestA509ToAvebury.99", "R20").
possibleRouteOfVehicle("EastA509ToH6.198", "R21").
possibleRouteOfVehicle("EastA509ToH6.195", "R21").
possibleRouteOfVehicle("EastA509ToH6.192", "R21").
possibleRouteOfVehicle("EastSilburyToEastAvebury.110", "R20").
possibleRouteOfVehicle("EastA509ToH6.186", "R22").
possibleRouteOfVehicle("EastA509ToH6.194", "R21").
possibleRouteOfVehicle("EastSilburyToEastAvebury.54", "R16").
possibleRouteOfVehicle("EastSilburyToEastAvebury.129", "R20").
possibleRouteOfVehicle("EastSilburyToEastAvebury.137", "R1").
possibleRouteOfVehicle("WestA509ToAvebury.134", "R20").
possibleRouteOfVehicle("EastSilburyToEastAvebury.134", "R1").
possibleRouteOfVehicle("WestA509ToAvebury.178", "R23").
possibleRouteOfVehicle("EastSilburyToEastAvebury.60", "R16").
possibleRouteOfVehicle("EastSilburyToEastAvebury.143", "R1").
possibleRouteOfVehicle("EastSilburyToEastAvebury.105", "R20").
possibleRouteOfVehicle("EastSilburyToEastAvebury.138", "R1").
possibleRouteOfVehicle("EastA509ToH6.190", "R22").
possibleRouteOfVehicle("EastSilburyToEastAvebury.112", "R24").
possibleRouteOfVehicle("EastSilburyToEastAvebury.146", "R25").
possibleRouteOfVehicle("EastSilburyToEastAvebury.116", "R23").
possibleRouteOfVehicle("EastA509ToH6.197", "R21").
possibleRouteOfVehicle("EastSilburyToEastAvebury.115", "R19").
possibleRouteOfVehicle("EastSilburyToEastAvebury.100", "R20").
possibleRouteOfVehicle("EastSilburyToEastAvebury.130", "R20").
possibleRouteOfVehicle("EastSilburyToEastAvebury.136", "R1").
possibleRouteOfVehicle("WestA509ToAvebury.94", "R20").
possibleRouteOfVehicle("WestA509ToAvebury.124", "R20").
possibleRouteOfVehicle("EastSilburyToEastAvebury.141", "R1").
possibleRouteOfVehicle("WestA509ToAvebury.156", "R19").
possibleRouteOfVehicle("WestA509ToAvebury.193", "R24").
possibleRouteOfVehicle("EastA509ToH6.199", "R21").
possibleRouteOfVehicle("WestA509ToAvebury.164", "R19").
possibleRouteOfVehicle("EastA509ToH6.193", "R21").
possibleRouteOfVehicle("EastSilburyToEastAvebury.61", "R16").
possibleRouteOfVehicle("WestA509ToAvebury.70", "R16").
possibleRouteOfVehicle("EastA509ToH6.196", "R21").
possibleRouteOfVehicle("EastA509ToH6.191", "R22").
possibleRouteOfVehicle("EastSilburyToEastAvebury.108", "R24").
possibleRouteOfVehicle("EastA509ToH6.187", "R22").
possibleRouteOfVehicle("WestA509ToAvebury.163", "R19").
possibleRouteOfVehicle("EastSilburyToEastAvebury.91", "R23").
possibleRouteOfVehicle("EastSilburyToEastAvebury.133", "R1").
possibleRouteOfVehicle("EastSilburyToEastAvebury.85", "R20").
possibleRouteOfVehicle("EastSilburyToEastAvebury.149", "R26").
possibleRouteOfVehicle("EastSilburyToEastAvebury.114", "R16").
possibleRouteOfVehicle("EastSilburyToEastAvebury.90", "R19").
possibleRouteOfVehicle("WestA509ToAvebury.181", "R23").
possibleRouteOfVehicle("WestA509ToAvebury.169", "R19").
possibleRouteOfVehicle("EastSilburyToEastAvebury.140", "R1").
possibleRouteOfVehicle("WestA509ToAvebury.120", "R23").
possibleRouteOfVehicle("EastSilburyToEastAvebury.148", "R26").
possibleRouteOfVehicle("EastSilburyToEastAvebury.82", "R20").
possibleRouteOfVehicle("EastSilburyToEastAvebury.132", "R1").
possibleRouteOfVehicle("EastSilburyToEastAvebury.150", "R1").
possibleRouteOfVehicle("EastSilburyToEastAvebury.113", "R27").
possibleRouteOfVehicle("EastSilburyToEastAvebury.131", "R20").
possibleRouteOfVehicle("EastSilburyToEastAvebury.144", "R1").
possibleRouteOfVehicle("EastSilburyToEastAvebury.79", "R20").
possibleRouteOfVehicle("WestA509ToAvebury.189", "R24").
possibleRouteOfVehicle("EastA509ToH6.189", "R22").
possibleRouteOfVehicle("WestA509ToAvebury.66", "R16").
possibleRouteOfVehicle("EastSilburyToEastAvebury.142", "R1").
possibleRouteOfVehicle("WestA509ToAvebury.196", "R19").
possibleRouteOfVehicle("EastSilburyToEastAvebury.89", "R19").
possibleRouteOfVehicle("WestA509ToAvebury.194", "R19").
possibleRouteOfVehicle("EastA509ToH6.188", "R22").
time(0).
time(5).
time(10).
time(15).
time(20).
time(25).
time(30).
time(35).
time(40).
time(45).
time(50).
time(55).
time(60).
time(65).
time(70).
time(75).
time(80).
time(85).
time(90).
time(95).
time(100).
time(105).
time(110).
time(115).
time(120).
time(125).
time(130).
time(135).
time(140).
time(145).
time(150).
time(155).
time(160).
time(165).
time(170).
time(175).
time(180).
time(185).
time(190).
time(195).
time(200).
time(205).
time(210).
time(215).
time(220).
time(225).
time(230).
time(235).
time(240).
time(245).
time(250).
time(255).
time(260).
time(265).
time(270).
time(275).
time(280).
time(285).
time(290).
time(295).
time(300).
time(305).
time(310).
time(315).
time(320).
time(325).
time(330).
time(335).
time(340).
time(345).
time(350).
time(355).
time(360).
time(365).
time(370).
time(375).
time(380).
time(385).
time(390).
time(395).
time(400).
time(405).
time(410).
time(415).
time(420).
time(425).
time(430).
time(435).
time(440).
time(445).
time(450).
time(455).
capacity("481", 18).
maxTrafficTravelTime("481", 180).
heavyTrafficTravelTime("481", 20).
mediumTrafficTravelTime("481", 10).
lightTrafficTravelTime("481", 10).
heavyTrafficThreshold("481", 13, 18).
mediumTrafficThreshold("481", 8, 13).
lightTrafficThreshold("481", 0, 8).
capacity("31[0]", 4).
maxTrafficTravelTime("31[0]", 10).
mediumTrafficTravelTime("31[0]", 5).
lightTrafficTravelTime("31[0]", 5).
heavyTrafficThreshold("31[0]", 3, 4).
mediumTrafficThreshold("31[0]", 2, 3).
lightTrafficThreshold("31[0]", 0, 2).
capacity("(2[0]|2[1][0]|2[1][1])", 4).
maxTrafficTravelTime("(2[0]|2[1][0]|2[1][1])", 15).
mediumTrafficTravelTime("(2[0]|2[1][0]|2[1][1])", 10).
lightTrafficTravelTime("(2[0]|2[1][0]|2[1][1])", 5).
heavyTrafficThreshold("(2[0]|2[1][0]|2[1][1])", 3, 4).
mediumTrafficThreshold("(2[0]|2[1][0]|2[1][1])", 2, 3).
lightTrafficThreshold("(2[0]|2[1][0]|2[1][1])", 0, 2).
capacity("302", 26).
maxTrafficTravelTime("302", 45).
lightTrafficTravelTime("302", 40).
heavyTrafficThreshold("302", 19, 26).
mediumTrafficThreshold("302", 11, 19).
lightTrafficThreshold("302", 0, 11).
capacity("(2[1][1])", 2).
maxTrafficTravelTime("(2[1][1])", 15).
mediumTrafficTravelTime("(2[1][1])", 10).
lightTrafficTravelTime("(2[1][1])", 5).
heavyTrafficThreshold("(2[1][1])", 2, 2).
mediumTrafficThreshold("(2[1][1])", 1, 2).
lightTrafficThreshold("(2[1][1])", 0, 1).
capacity("[5|6]", 26).
maxTrafficTravelTime("[5|6]", 20).
mediumTrafficTravelTime("[5|6]", 15).
lightTrafficTravelTime("[5|6]", 10).
heavyTrafficThreshold("[5|6]", 19, 26).
mediumTrafficThreshold("[5|6]", 11, 19).
lightTrafficThreshold("[5|6]", 0, 11).
capacity("426", 26).
maxTrafficTravelTime("426", 80).
heavyTrafficTravelTime("426", 30).
mediumTrafficTravelTime("426", 15).
lightTrafficTravelTime("426", 10).
heavyTrafficThreshold("426", 19, 26).
mediumTrafficThreshold("426", 11, 19).
lightTrafficThreshold("426", 0, 11).
capacity("299", 26).
maxTrafficTravelTime("299", 15).
lightTrafficTravelTime("299", 10).
heavyTrafficThreshold("299", 19, 26).
mediumTrafficThreshold("299", 11, 19).
lightTrafficThreshold("299", 0, 11).
capacity("226[1][0]", 2).
maxTrafficTravelTime("226[1][0]", 35).
heavyTrafficTravelTime("226[1][0]", 5).
mediumTrafficTravelTime("226[1][0]", 5).
lightTrafficTravelTime("226[1][0]", 5).
heavyTrafficThreshold("226[1][0]", 2, 2).
mediumTrafficThreshold("226[1][0]", 1, 2).
lightTrafficThreshold("226[1][0]", 0, 1).
capacity("[11|12]", 24).
maxTrafficTravelTime("[11|12]", 70).
heavyTrafficTravelTime("[11|12]", 25).
mediumTrafficTravelTime("[11|12]", 15).
lightTrafficTravelTime("[11|12]", 10).
heavyTrafficThreshold("[11|12]", 17, 24).
mediumTrafficThreshold("[11|12]", 10, 17).
lightTrafficThreshold("[11|12]", 0, 10).
capacity("308", 26).
maxTrafficTravelTime("308", 15).
lightTrafficTravelTime("308", 10).
heavyTrafficThreshold("308", 19, 26).
mediumTrafficThreshold("308", 11, 19).
lightTrafficThreshold("308", 0, 11).
capacity("[364|160]", 16).
maxTrafficTravelTime("[364|160]", 50).
mediumTrafficTravelTime("[364|160]", 40).
lightTrafficTravelTime("[364|160]", 40).
heavyTrafficThreshold("[364|160]", 12, 16).
mediumTrafficThreshold("[364|160]", 7, 12).
lightTrafficThreshold("[364|160]", 0, 7).
capacity("338[1][1]", 24).
maxTrafficTravelTime("338[1][1]", 45).
mediumTrafficTravelTime("338[1][1]", 40).
lightTrafficTravelTime("338[1][1]", 40).
heavyTrafficThreshold("338[1][1]", 17, 24).
mediumTrafficThreshold("338[1][1]", 10, 17).
lightTrafficThreshold("338[1][1]", 0, 10).
capacity("31[1][1]", 6).
maxTrafficTravelTime("31[1][1]", 10).
lightTrafficTravelTime("31[1][1]", 5).
heavyTrafficThreshold("31[1][1]", 5, 6).
mediumTrafficThreshold("31[1][1]", 3, 5).
lightTrafficThreshold("31[1][1]", 0, 3).
capacity("[152|153]", 24).
maxTrafficTravelTime("[152|153]", 50).
mediumTrafficTravelTime("[152|153]", 45).
lightTrafficTravelTime("[152|153]", 40).
heavyTrafficThreshold("[152|153]", 17, 24).
mediumTrafficThreshold("[152|153]", 10, 17).
lightTrafficThreshold("[152|153]", 0, 10).
capacity("26", 18).
maxTrafficTravelTime("26", 75).
heavyTrafficTravelTime("26", 20).
mediumTrafficTravelTime("26", 10).
lightTrafficTravelTime("26", 10).
heavyTrafficThreshold("26", 13, 18).
mediumTrafficThreshold("26", 8, 13).
lightTrafficThreshold("26", 0, 8).
capacity("226[0]", 18).
maxTrafficTravelTime("226[0]", 40).
heavyTrafficTravelTime("226[0]", 20).
mediumTrafficTravelTime("226[0]", 10).
lightTrafficTravelTime("226[0]", 10).
heavyTrafficThreshold("226[0]", 13, 18).
mediumTrafficThreshold("226[0]", 8, 13).
lightTrafficThreshold("226[0]", 0, 8).
capacity("493", 34).
maxTrafficTravelTime("493", 185).
heavyTrafficTravelTime("493", 35).
mediumTrafficTravelTime("493", 20).
lightTrafficTravelTime("493", 15).
heavyTrafficThreshold("493", 24, 34).
mediumTrafficThreshold("493", 14, 24).
lightTrafficThreshold("493", 0, 14).
capacity("385", 16).
maxTrafficTravelTime("385", 75).
heavyTrafficTravelTime("385", 20).
mediumTrafficTravelTime("385", 10).
lightTrafficTravelTime("385", 10).
heavyTrafficThreshold("385", 12, 16).
mediumTrafficThreshold("385", 7, 12).
lightTrafficThreshold("385", 0, 7).
capacity("576", 98).
maxTrafficTravelTime("576", 40).
lightTrafficTravelTime("576", 35).
heavyTrafficThreshold("576", 69, 98).
mediumTrafficThreshold("576", 40, 69).
lightTrafficThreshold("576", 0, 40).
capacity("(470[1])", 2).
maxTrafficTravelTime("(470[1])", 75).
heavyTrafficTravelTime("(470[1])", 15).
mediumTrafficTravelTime("(470[1])", 10).
lightTrafficTravelTime("(470[1])", 5).
heavyTrafficThreshold("(470[1])", 2, 2).
mediumTrafficThreshold("(470[1])", 1, 2).
lightTrafficThreshold("(470[1])", 0, 1).
capacity("18", 14).
maxTrafficTravelTime("18", 10).
lightTrafficTravelTime("18", 5).
heavyTrafficThreshold("18", 10, 14).
mediumTrafficThreshold("18", 6, 10).
lightTrafficThreshold("18", 0, 6).
capacity("430", 18).
maxTrafficTravelTime("430", 80).
heavyTrafficTravelTime("430", 20).
mediumTrafficTravelTime("430", 10).
lightTrafficTravelTime("430", 10).
heavyTrafficThreshold("430", 13, 18).
mediumTrafficThreshold("430", 8, 13).
lightTrafficThreshold("430", 0, 8).
capacity("(581[1][1]|579.0|577[0])", 4).
maxTrafficTravelTime("(581[1][1]|579.0|577[0])", 10).
lightTrafficTravelTime("(581[1][1]|579.0|577[0])", 5).
heavyTrafficThreshold("(581[1][1]|579.0|577[0])", 3, 4).
mediumTrafficThreshold("(581[1][1]|579.0|577[0])", 2, 3).
lightTrafficThreshold("(581[1][1]|579.0|577[0])", 0, 2).
capacity("[497|338[0]]", 54).
maxTrafficTravelTime("[497|338[0]]", 20).
lightTrafficTravelTime("[497|338[0]]", 15).
heavyTrafficThreshold("[497|338[0]]", 38, 54).
mediumTrafficThreshold("[497|338[0]]", 22, 38).
lightTrafficThreshold("[497|338[0]]", 0, 22).
capacity("(2[1][1]|3)", 2).
maxTrafficTravelTime("(2[1][1]|3)", 15).
mediumTrafficTravelTime("(2[1][1]|3)", 10).
lightTrafficTravelTime("(2[1][1]|3)", 5).
heavyTrafficThreshold("(2[1][1]|3)", 2, 2).
mediumTrafficThreshold("(2[1][1]|3)", 1, 2).
lightTrafficThreshold("(2[1][1]|3)", 0, 1).
capacity("338[1][0]", 3).
maxTrafficTravelTime("338[1][0]", 10).
heavyTrafficTravelTime("338[1][0]", 5).
mediumTrafficTravelTime("338[1][0]", 5).
lightTrafficTravelTime("338[1][0]", 5).
heavyTrafficThreshold("338[1][0]", 3, 3).
mediumTrafficThreshold("338[1][0]", 2, 3).
lightTrafficThreshold("338[1][0]", 0, 2).
capacity("418", 26).
maxTrafficTravelTime("418", 110).
heavyTrafficTravelTime("418", 60).
mediumTrafficTravelTime("418", 45).
lightTrafficTravelTime("418", 40).
heavyTrafficThreshold("418", 19, 26).
mediumTrafficThreshold("418", 11, 19).
lightTrafficThreshold("418", 0, 11).
capacity("335", 26).
maxTrafficTravelTime("335", 45).
lightTrafficTravelTime("335", 40).
heavyTrafficThreshold("335", 19, 26).
mediumTrafficThreshold("335", 11, 19).
lightTrafficThreshold("335", 0, 11).
capacity("[146|147]", 22).
maxTrafficTravelTime("[146|147]", 100).
heavyTrafficTravelTime("[146|147]", 55).
mediumTrafficTravelTime("[146|147]", 45).
lightTrafficTravelTime("[146|147]", 40).
heavyTrafficThreshold("[146|147]", 16, 22).
mediumTrafficThreshold("[146|147]", 9, 16).
lightTrafficThreshold("[146|147]", 0, 9).
capacity("159", 18).
maxTrafficTravelTime("159", 20).
mediumTrafficTravelTime("159", 10).
lightTrafficTravelTime("159", 10).
heavyTrafficThreshold("159", 13, 18).
mediumTrafficThreshold("159", 8, 13).
lightTrafficThreshold("159", 0, 8).
capacity("1", 20).
maxTrafficTravelTime("1", 20).
mediumTrafficTravelTime("1", 15).
lightTrafficTravelTime("1", 10).
heavyTrafficThreshold("1", 14, 20).
mediumTrafficThreshold("1", 8, 14).
lightTrafficThreshold("1", 0, 8).
capacity("[565|134]", 30).
maxTrafficTravelTime("[565|134]", 20).
lightTrafficTravelTime("[565|134]", 15).
heavyTrafficThreshold("[565|134]", 21, 30).
mediumTrafficThreshold("[565|134]", 12, 21).
lightTrafficThreshold("[565|134]", 0, 12).
capacity("[15|16]", 24).
maxTrafficTravelTime("[15|16]", 70).
heavyTrafficTravelTime("[15|16]", 25).
mediumTrafficTravelTime("[15|16]", 15).
lightTrafficTravelTime("[15|16]", 10).
heavyTrafficThreshold("[15|16]", 17, 24).
mediumTrafficThreshold("[15|16]", 10, 17).
lightTrafficThreshold("[15|16]", 0, 10).
capacity("228[0]", 8).
maxTrafficTravelTime("228[0]", 15).
heavyTrafficTravelTime("228[0]", 10).
mediumTrafficTravelTime("228[0]", 5).
lightTrafficTravelTime("228[0]", 5).
heavyTrafficThreshold("228[0]", 6, 8).
mediumTrafficThreshold("228[0]", 4, 6).
lightTrafficThreshold("228[0]", 0, 4).
capacity("(252[0])", 2).
maxTrafficTravelTime("(252[0])", 75).
heavyTrafficTravelTime("(252[0])", 15).
mediumTrafficTravelTime("(252[0])", 10).
lightTrafficTravelTime("(252[0])", 5).
heavyTrafficThreshold("(252[0])", 2, 2).
mediumTrafficThreshold("(252[0])", 1, 2).
lightTrafficThreshold("(252[0])", 0, 1).
capacity("[9|10]", 22).
maxTrafficTravelTime("[9|10]", 50).
mediumTrafficTravelTime("[9|10]", 45).
lightTrafficTravelTime("[9|10]", 40).
heavyTrafficThreshold("[9|10]", 16, 22).
mediumTrafficThreshold("[9|10]", 9, 16).
lightTrafficThreshold("[9|10]", 0, 9).
capacity("(252[0]|252[1][0]|252[1][1])", 4).
maxTrafficTravelTime("(252[0]|252[1][0]|252[1][1])", 70).
heavyTrafficTravelTime("(252[0]|252[1][0]|252[1][1])", 15).
mediumTrafficTravelTime("(252[0]|252[1][0]|252[1][1])", 10).
lightTrafficTravelTime("(252[0]|252[1][0]|252[1][1])", 5).
heavyTrafficThreshold("(252[0]|252[1][0]|252[1][1])", 3, 4).
mediumTrafficThreshold("(252[0]|252[1][0]|252[1][1])", 2, 3).
lightTrafficThreshold("(252[0]|252[1][0]|252[1][1])", 0, 2).
capacity("161", 46).
maxTrafficTravelTime("161", 55).
lightTrafficTravelTime("161", 45).
heavyTrafficThreshold("161", 33, 46).
mediumTrafficThreshold("161", 19, 33).
lightTrafficThreshold("161", 0, 19).
capacity("[186|522]", 64).
maxTrafficTravelTime("[186|522]", 195).
heavyTrafficTravelTime("[186|522]", 65).
mediumTrafficTravelTime("[186|522]", 35).
lightTrafficTravelTime("[186|522]", 25).
heavyTrafficThreshold("[186|522]", 45, 64).
mediumTrafficThreshold("[186|522]", 26, 45).
lightTrafficThreshold("[186|522]", 0, 26).
capacity("138", 102).
maxTrafficTravelTime("138", 100).
mediumTrafficTravelTime("138", 50).
lightTrafficTravelTime("138", 35).
heavyTrafficThreshold("138", 72, 102).
mediumTrafficThreshold("138", 41, 72).
lightTrafficThreshold("138", 0, 41).
capacity("[482|213]", 28).
maxTrafficTravelTime("[482|213]", 80).
heavyTrafficTravelTime("[482|213]", 30).
mediumTrafficTravelTime("[482|213]", 15).
lightTrafficTravelTime("[482|213]", 10).
heavyTrafficThreshold("[482|213]", 20, 28).
mediumTrafficThreshold("[482|213]", 12, 20).
lightTrafficThreshold("[482|213]", 0, 12).
capacity("(3)", 2).
maxTrafficTravelTime("(3)", 70).
heavyTrafficTravelTime("(3)", 15).
mediumTrafficTravelTime("(3)", 10).
lightTrafficTravelTime("(3)", 5).
heavyTrafficThreshold("(3)", 2, 2).
mediumTrafficThreshold("(3)", 1, 2).
lightTrafficThreshold("(3)", 0, 1).
capacity("228[1][0]", 6).
maxTrafficTravelTime("228[1][0]", 15).
heavyTrafficTravelTime("228[1][0]", 10).
mediumTrafficTravelTime("228[1][0]", 5).
lightTrafficTravelTime("228[1][0]", 5).
heavyTrafficThreshold("228[1][0]", 5, 6).
mediumTrafficThreshold("228[1][0]", 3, 5).
lightTrafficThreshold("228[1][0]", 0, 3).
capacity("[566|552]", 90).
maxTrafficTravelTime("[566|552]", 35).
lightTrafficTravelTime("[566|552]", 30).
heavyTrafficThreshold("[566|552]", 63, 90).
mediumTrafficThreshold("[566|552]", 36, 63).
lightTrafficThreshold("[566|552]", 0, 36).
capacity("310", 18).
maxTrafficTravelTime("310", 15).
mediumTrafficTravelTime("310", 10).
lightTrafficTravelTime("310", 10).
heavyTrafficThreshold("310", 13, 18).
mediumTrafficThreshold("310", 8, 13).
lightTrafficThreshold("310", 0, 8).
capacity("[154|155]", 24).
maxTrafficTravelTime("[154|155]", 70).
heavyTrafficTravelTime("[154|155]", 25).
mediumTrafficTravelTime("[154|155]", 15).
lightTrafficTravelTime("[154|155]", 10).
heavyTrafficThreshold("[154|155]", 17, 24).
mediumTrafficThreshold("[154|155]", 10, 17).
lightTrafficThreshold("[154|155]", 0, 10).
capacity("312", 34).
maxTrafficTravelTime("312", 25).
mediumTrafficTravelTime("312", 20).
lightTrafficTravelTime("312", 15).
heavyTrafficThreshold("312", 24, 34).
mediumTrafficThreshold("312", 14, 24).
lightTrafficThreshold("312", 0, 14).
capacity("479", 98).
maxTrafficTravelTime("479", 105).
heavyTrafficTravelTime("479", 100).
mediumTrafficTravelTime("479", 50).
lightTrafficTravelTime("479", 35).
heavyTrafficThreshold("479", 69, 98).
mediumTrafficThreshold("479", 40, 69).
lightTrafficThreshold("479", 0, 40).
capacity("(19[0])", 2).
maxTrafficTravelTime("(19[0])", 15).
mediumTrafficTravelTime("(19[0])", 10).
lightTrafficTravelTime("(19[0])", 5).
heavyTrafficThreshold("(19[0])", 2, 2).
mediumTrafficThreshold("(19[0])", 1, 2).
lightTrafficThreshold("(19[0])", 0, 1).
capacity("31[1][0]", 1).
maxTrafficTravelTime("31[1][0]", 10).
heavyTrafficTravelTime("31[1][0]", 5).
mediumTrafficTravelTime("31[1][0]", 5).
lightTrafficTravelTime("31[1][0]", 5).
heavyTrafficThreshold("31[1][0]", 1, 1).
mediumTrafficThreshold("31[1][0]", 1, 1).
lightTrafficThreshold("31[1][0]", 0, 1).
capacity("464", 26).
maxTrafficTravelTime("464", 110).
heavyTrafficTravelTime("464", 60).
mediumTrafficTravelTime("464", 45).
lightTrafficTravelTime("464", 40).
heavyTrafficThreshold("464", 19, 26).
mediumTrafficThreshold("464", 11, 19).
lightTrafficThreshold("464", 0, 11).
capacity("320", 18).
maxTrafficTravelTime("320", 15).
mediumTrafficTravelTime("320", 10).
lightTrafficTravelTime("320", 10).
heavyTrafficThreshold("320", 13, 18).
mediumTrafficThreshold("320", 8, 13).
lightTrafficThreshold("320", 0, 8).
capacity("250", 26).
maxTrafficTravelTime("250", 80).
heavyTrafficTravelTime("250", 30).
mediumTrafficTravelTime("250", 15).
lightTrafficTravelTime("250", 10).
heavyTrafficThreshold("250", 19, 26).
mediumTrafficThreshold("250", 11, 19).
lightTrafficThreshold("250", 0, 11).
capacity("379", 18).
maxTrafficTravelTime("379", 15).
mediumTrafficTravelTime("379", 10).
lightTrafficTravelTime("379", 10).
heavyTrafficThreshold("379", 13, 18).
mediumTrafficThreshold("379", 8, 13).
lightTrafficThreshold("379", 0, 8).
capacity("305", 18).
maxTrafficTravelTime("305", 15).
mediumTrafficTravelTime("305", 10).
lightTrafficTravelTime("305", 10).
heavyTrafficThreshold("305", 13, 18).
mediumTrafficThreshold("305", 8, 13).
lightTrafficThreshold("305", 0, 8).
capacity("[7|8]", 38).
maxTrafficTravelTime("[7|8]", 25).
mediumTrafficTravelTime("[7|8]", 20).
lightTrafficTravelTime("[7|8]", 15).
heavyTrafficThreshold("[7|8]", 27, 38).
mediumTrafficThreshold("[7|8]", 16, 27).
lightTrafficThreshold("[7|8]", 0, 16).
capacity("30", 18).
maxTrafficTravelTime("30", 15).
mediumTrafficTravelTime("30", 10).
lightTrafficTravelTime("30", 10).
heavyTrafficThreshold("30", 13, 18).
mediumTrafficThreshold("30", 8, 13).
lightTrafficThreshold("30", 0, 8).
capacity("303", 18).
maxTrafficTravelTime("303", 15).
mediumTrafficTravelTime("303", 10).
lightTrafficTravelTime("303", 10).
heavyTrafficThreshold("303", 13, 18).
mediumTrafficThreshold("303", 8, 13).
lightTrafficThreshold("303", 0, 8).
capacity("228[1][1]", 22).
maxTrafficTravelTime("228[1][1]", 50).
mediumTrafficTravelTime("228[1][1]", 45).
lightTrafficTravelTime("228[1][1]", 40).
heavyTrafficThreshold("228[1][1]", 16, 22).
mediumTrafficThreshold("228[1][1]", 9, 16).
lightTrafficThreshold("228[1][1]", 0, 9).
capacity("412", 18).
maxTrafficTravelTime("412", 80).
heavyTrafficTravelTime("412", 20).
mediumTrafficTravelTime("412", 10).
lightTrafficTravelTime("412", 10).
heavyTrafficThreshold("412", 13, 18).
mediumTrafficThreshold("412", 8, 13).
lightTrafficThreshold("412", 0, 8).
capacity("[13|14]", 36).
maxTrafficTravelTime("[13|14]", 75).
heavyTrafficTravelTime("[13|14]", 35).
mediumTrafficTravelTime("[13|14]", 20).
lightTrafficTravelTime("[13|14]", 15).
heavyTrafficThreshold("[13|14]", 26, 36).
mediumTrafficThreshold("[13|14]", 15, 26).
lightTrafficThreshold("[13|14]", 0, 15).
capacity("488", 18).
maxTrafficTravelTime("488", 110).
heavyTrafficTravelTime("488", 50).
mediumTrafficTravelTime("488", 40).
lightTrafficTravelTime("488", 40).
heavyTrafficThreshold("488", 13, 18).
mediumTrafficThreshold("488", 8, 13).
lightTrafficThreshold("488", 0, 8).
capacity("446", 16).
maxTrafficTravelTime("446", 80).
heavyTrafficTravelTime("446", 20).
mediumTrafficTravelTime("446", 10).
lightTrafficTravelTime("446", 10).
heavyTrafficThreshold("446", 12, 16).
mediumTrafficThreshold("446", 7, 12).
lightTrafficThreshold("446", 0, 7).
capacity("[429|143]", 56).
maxTrafficTravelTime("[429|143]", 80).
heavyTrafficTravelTime("[429|143]", 55).
mediumTrafficTravelTime("[429|143]", 30).
lightTrafficTravelTime("[429|143]", 20).
heavyTrafficThreshold("[429|143]", 40, 56).
mediumTrafficThreshold("[429|143]", 23, 40).
lightTrafficThreshold("[429|143]", 0, 23).
capacity("[148|149]", 38).
maxTrafficTravelTime("[148|149]", 25).
mediumTrafficTravelTime("[148|149]", 20).
lightTrafficTravelTime("[148|149]", 15).
heavyTrafficThreshold("[148|149]", 27, 38).
mediumTrafficThreshold("[148|149]", 16, 27).
lightTrafficThreshold("[148|149]", 0, 16).
capacity("[150|151]", 38).
maxTrafficTravelTime("[150|151]", 75).
heavyTrafficTravelTime("[150|151]", 40).
mediumTrafficTravelTime("[150|151]", 20).
lightTrafficTravelTime("[150|151]", 15).
heavyTrafficThreshold("[150|151]", 27, 38).
mediumTrafficThreshold("[150|151]", 16, 27).
lightTrafficThreshold("[150|151]", 0, 16).
capacity("[317|216]", 28).
maxTrafficTravelTime("[317|216]", 45).
lightTrafficTravelTime("[317|216]", 40).
heavyTrafficThreshold("[317|216]", 20, 28).
mediumTrafficThreshold("[317|216]", 12, 20).
lightTrafficThreshold("[317|216]", 0, 12).
capacity("316", 26).
maxTrafficTravelTime("316", 15).
lightTrafficTravelTime("316", 10).
heavyTrafficThreshold("316", 19, 26).
mediumTrafficThreshold("316", 11, 19).
lightTrafficThreshold("316", 0, 11).
capacity("575", 24).
maxTrafficTravelTime("575", 50).
mediumTrafficTravelTime("575", 40).
lightTrafficTravelTime("575", 40).
heavyTrafficThreshold("575", 17, 24).
mediumTrafficThreshold("575", 10, 17).
lightTrafficThreshold("575", 0, 10).
capacity("396", 18).
maxTrafficTravelTime("396", 80).
heavyTrafficTravelTime("396", 20).
mediumTrafficTravelTime("396", 10).
lightTrafficTravelTime("396", 10).
heavyTrafficThreshold("396", 13, 18).
mediumTrafficThreshold("396", 8, 13).
lightTrafficThreshold("396", 0, 8).
capacity("[249|139]", 52).
maxTrafficTravelTime("[249|139]", 85).
heavyTrafficTravelTime("[249|139]", 55).
mediumTrafficTravelTime("[249|139]", 30).
lightTrafficTravelTime("[249|139]", 20).
heavyTrafficThreshold("[249|139]", 37, 52).
mediumTrafficThreshold("[249|139]", 21, 37).
lightTrafficThreshold("[249|139]", 0, 21).
capacity("480", 34).
maxTrafficTravelTime("480", 85).
heavyTrafficTravelTime("480", 35).
mediumTrafficTravelTime("480", 20).
lightTrafficTravelTime("480", 15).
heavyTrafficThreshold("480", 24, 34).
mediumTrafficThreshold("480", 14, 24).
lightTrafficThreshold("480", 0, 14).
capacity("(581[1][1])", 2).
maxTrafficTravelTime("(581[1][1])", 15).
mediumTrafficTravelTime("(581[1][1])", 10).
lightTrafficTravelTime("(581[1][1])", 5).
heavyTrafficThreshold("(581[1][1])", 2, 2).
mediumTrafficThreshold("(581[1][1])", 1, 2).
lightTrafficThreshold("(581[1][1])", 0, 1).
capacity("313", 18).
maxTrafficTravelTime("313", 15).
mediumTrafficTravelTime("313", 10).
lightTrafficTravelTime("313", 10).
heavyTrafficThreshold("313", 13, 18).
mediumTrafficThreshold("313", 8, 13).
lightTrafficThreshold("313", 0, 8).
capacity("[144|145]", 24).
maxTrafficTravelTime("[144|145]", 20).
mediumTrafficTravelTime("[144|145]", 15).
lightTrafficTravelTime("[144|145]", 10).
heavyTrafficThreshold("[144|145]", 17, 24).
mediumTrafficThreshold("[144|145]", 10, 17).
lightTrafficThreshold("[144|145]", 0, 10).
capacity("226[1][1]", 20).
maxTrafficTravelTime("226[1][1]", 100).
heavyTrafficTravelTime("226[1][1]", 55).
mediumTrafficTravelTime("226[1][1]", 45).
lightTrafficTravelTime("226[1][1]", 40).
heavyTrafficThreshold("226[1][1]", 14, 20).
mediumTrafficThreshold("226[1][1]", 8, 14).
lightTrafficThreshold("226[1][1]", 0, 8).
origin("WestA509ToAvebury.75", "226[1][1]").
enter("WestA509ToAvebury.75", "226[1][1]", 0).
exit("WestA509ToAvebury.75", "226[1][1]", 40).
enter("WestA509ToAvebury.75", "228[0]", 40).
exit("WestA509ToAvebury.75", "228[0]", 50).
enter("WestA509ToAvebury.75", "228[1][0]", 50).
exit("WestA509ToAvebury.75", "228[1][0]", 55).
enter("WestA509ToAvebury.75", "228[1][1]", 55).
exit("WestA509ToAvebury.75", "228[1][1]", 95).
enter("WestA509ToAvebury.75", "[482|213]", 95).
exit("WestA509ToAvebury.75", "[482|213]", 105).
origin("EastSilburyToEastAvebury.139", "[317|216]").
enter("EastSilburyToEastAvebury.139", "[317|216]", 0).
exit("EastSilburyToEastAvebury.139", "[317|216]", 45).
enter("EastSilburyToEastAvebury.139", "226[0]", 45).
exit("EastSilburyToEastAvebury.139", "226[0]", 85).
enter("EastSilburyToEastAvebury.139", "226[1][0]", 85).
exit("EastSilburyToEastAvebury.139", "226[1][0]", 90).
enter("EastSilburyToEastAvebury.139", "226[1][1]", 90).
exit("EastSilburyToEastAvebury.139", "226[1][1]", 160).
enter("EastSilburyToEastAvebury.139", "228[0]", 160).
exit("EastSilburyToEastAvebury.139", "228[0]", 180).
enter("EastSilburyToEastAvebury.139", "228[1][0]", 180).
exit("EastSilburyToEastAvebury.139", "228[1][0]", 195).
enter("EastSilburyToEastAvebury.139", "228[1][1]", 195).
exit("EastSilburyToEastAvebury.139", "228[1][1]", 265).
enter("EastSilburyToEastAvebury.139", "[482|213]", 265).
exit("EastSilburyToEastAvebury.139", "[482|213]", 320).
origin("EastSilburyToEastAvebury.145", "161").
enter("EastSilburyToEastAvebury.145", "161", 0).
exit("EastSilburyToEastAvebury.145", "161", 45).
enter("EastSilburyToEastAvebury.145", "426", 45).
exit("EastSilburyToEastAvebury.145", "426", 55).
enter("EastSilburyToEastAvebury.145", "430", 55).
exit("EastSilburyToEastAvebury.145", "430", 65).
enter("EastSilburyToEastAvebury.145", "446", 65).
exit("EastSilburyToEastAvebury.145", "446", 75).
enter("EastSilburyToEastAvebury.145", "464", 75).
exit("EastSilburyToEastAvebury.145", "464", 115).
enter("EastSilburyToEastAvebury.145", "[482|213]", 115).
exit("EastSilburyToEastAvebury.145", "[482|213]", 125).
origin("EastSilburyToEastAvebury.147", "479").
enter("EastSilburyToEastAvebury.147", "479", 0).
exit("EastSilburyToEastAvebury.147", "479", 35).
enter("EastSilburyToEastAvebury.147", "480", 35).
exit("EastSilburyToEastAvebury.147", "480", 50).
enter("EastSilburyToEastAvebury.147", "488", 50).
exit("EastSilburyToEastAvebury.147", "488", 90).
enter("EastSilburyToEastAvebury.147", "[482|213]", 90).
exit("EastSilburyToEastAvebury.147", "[482|213]", 100).
origin("EastSilburyToEastAvebury.135", "[317|216]").
enter("EastSilburyToEastAvebury.135", "[317|216]", 0).
exit("EastSilburyToEastAvebury.135", "[317|216]", 45).
enter("EastSilburyToEastAvebury.135", "226[0]", 45).
exit("EastSilburyToEastAvebury.135", "226[0]", 85).
enter("EastSilburyToEastAvebury.135", "226[1][0]", 85).
exit("EastSilburyToEastAvebury.135", "226[1][0]", 90).
enter("EastSilburyToEastAvebury.135", "226[1][1]", 90).
exit("EastSilburyToEastAvebury.135", "226[1][1]", 160).
enter("EastSilburyToEastAvebury.135", "228[0]", 160).
exit("EastSilburyToEastAvebury.135", "228[0]", 180).
enter("EastSilburyToEastAvebury.135", "228[1][0]", 180).
exit("EastSilburyToEastAvebury.135", "228[1][0]", 195).
enter("EastSilburyToEastAvebury.135", "228[1][1]", 195).
exit("EastSilburyToEastAvebury.135", "228[1][1]", 265).
enter("EastSilburyToEastAvebury.135", "[482|213]", 265).
exit("EastSilburyToEastAvebury.135", "[482|213]", 320).
origin("WestA509ToAvebury.103", "226[1][1]").
enter("WestA509ToAvebury.103", "226[1][1]", 0).
exit("WestA509ToAvebury.103", "226[1][1]", 40).
enter("WestA509ToAvebury.103", "228[0]", 40).
exit("WestA509ToAvebury.103", "228[0]", 45).
enter("WestA509ToAvebury.103", "228[1][0]", 45).
exit("WestA509ToAvebury.103", "228[1][0]", 50).
enter("WestA509ToAvebury.103", "228[1][1]", 50).
exit("WestA509ToAvebury.103", "228[1][1]", 90).
enter("WestA509ToAvebury.103", "[482|213]", 90).
exit("WestA509ToAvebury.103", "[482|213]", 100).
origin("WestA509ToAvebury.60", "228[1][1]").
enter("WestA509ToAvebury.60", "228[1][1]", 0).
exit("WestA509ToAvebury.60", "228[1][1]", 40).
enter("WestA509ToAvebury.60", "[482|213]", 40).
exit("WestA509ToAvebury.60", "[482|213]", 50).
origin("WestA509ToAvebury.99", "226[0]").
enter("WestA509ToAvebury.99", "226[0]", 0).
exit("WestA509ToAvebury.99", "226[0]", 10).
enter("WestA509ToAvebury.99", "226[1][0]", 10).
exit("WestA509ToAvebury.99", "226[1][0]", 15).
enter("WestA509ToAvebury.99", "226[1][1]", 15).
exit("WestA509ToAvebury.99", "226[1][1]", 55).
enter("WestA509ToAvebury.99", "228[0]", 55).
exit("WestA509ToAvebury.99", "228[0]", 60).
enter("WestA509ToAvebury.99", "228[1][0]", 60).
exit("WestA509ToAvebury.99", "228[1][0]", 65).
enter("WestA509ToAvebury.99", "228[1][1]", 65).
exit("WestA509ToAvebury.99", "228[1][1]", 105).
enter("WestA509ToAvebury.99", "[482|213]", 105).
exit("WestA509ToAvebury.99", "[482|213]", 115).
origin("EastA509ToH6.198", "226[1][1]").
enter("EastA509ToH6.198", "226[1][1]", 0).
exit("EastA509ToH6.198", "226[1][1]", 70).
enter("EastA509ToH6.198", "228[0]", 70).
exit("EastA509ToH6.198", "228[0]", 90).
enter("EastA509ToH6.198", "228[1][0]", 90).
exit("EastA509ToH6.198", "228[1][0]", 105).
enter("EastA509ToH6.198", "228[1][1]", 105).
exit("EastA509ToH6.198", "228[1][1]", 175).
enter("EastA509ToH6.198", "481", 175).
exit("EastA509ToH6.198", "481", 185).
enter("EastA509ToH6.198", "493", 185).
exit("EastA509ToH6.198", "493", 200).
enter("EastA509ToH6.198", "[186|522]", 200).
exit("EastA509ToH6.198", "[186|522]", 320).
origin("EastA509ToH6.195", "226[1][1]").
enter("EastA509ToH6.195", "226[1][1]", 0).
exit("EastA509ToH6.195", "226[1][1]", 70).
enter("EastA509ToH6.195", "228[0]", 70).
exit("EastA509ToH6.195", "228[0]", 90).
enter("EastA509ToH6.195", "228[1][0]", 90).
exit("EastA509ToH6.195", "228[1][0]", 105).
enter("EastA509ToH6.195", "228[1][1]", 105).
exit("EastA509ToH6.195", "228[1][1]", 175).
enter("EastA509ToH6.195", "481", 175).
exit("EastA509ToH6.195", "481", 185).
enter("EastA509ToH6.195", "493", 185).
exit("EastA509ToH6.195", "493", 200).
enter("EastA509ToH6.195", "[186|522]", 200).
exit("EastA509ToH6.195", "[186|522]", 320).
origin("EastA509ToH6.192", "226[1][1]").
enter("EastA509ToH6.192", "226[1][1]", 0).
exit("EastA509ToH6.192", "226[1][1]", 70).
enter("EastA509ToH6.192", "228[0]", 70).
exit("EastA509ToH6.192", "228[0]", 90).
enter("EastA509ToH6.192", "228[1][0]", 90).
exit("EastA509ToH6.192", "228[1][0]", 105).
enter("EastA509ToH6.192", "228[1][1]", 105).
exit("EastA509ToH6.192", "228[1][1]", 175).
enter("EastA509ToH6.192", "481", 175).
exit("EastA509ToH6.192", "481", 185).
enter("EastA509ToH6.192", "493", 185).
exit("EastA509ToH6.192", "493", 205).
enter("EastA509ToH6.192", "[186|522]", 205).
exit("EastA509ToH6.192", "[186|522]", 325).
origin("EastSilburyToEastAvebury.110", "226[0]").
enter("EastSilburyToEastAvebury.110", "226[0]", 0).
exit("EastSilburyToEastAvebury.110", "226[0]", 25).
enter("EastSilburyToEastAvebury.110", "226[1][0]", 25).
exit("EastSilburyToEastAvebury.110", "226[1][0]", 35).
enter("EastSilburyToEastAvebury.110", "226[1][1]", 35).
exit("EastSilburyToEastAvebury.110", "226[1][1]", 95).
enter("EastSilburyToEastAvebury.110", "228[0]", 95).
exit("EastSilburyToEastAvebury.110", "228[0]", 100).
enter("EastSilburyToEastAvebury.110", "228[1][0]", 100).
exit("EastSilburyToEastAvebury.110", "228[1][0]", 110).
enter("EastSilburyToEastAvebury.110", "228[1][1]", 110).
exit("EastSilburyToEastAvebury.110", "228[1][1]", 155).
enter("EastSilburyToEastAvebury.110", "[482|213]", 155).
exit("EastSilburyToEastAvebury.110", "[482|213]", 165).
origin("EastA509ToH6.186", "228[1][1]").
enter("EastA509ToH6.186", "228[1][1]", 0).
exit("EastA509ToH6.186", "228[1][1]", 70).
enter("EastA509ToH6.186", "481", 70).
exit("EastA509ToH6.186", "481", 80).
enter("EastA509ToH6.186", "493", 80).
exit("EastA509ToH6.186", "493", 95).
enter("EastA509ToH6.186", "[186|522]", 95).
exit("EastA509ToH6.186", "[186|522]", 215).
origin("EastA509ToH6.194", "226[1][1]").
enter("EastA509ToH6.194", "226[1][1]", 0).
exit("EastA509ToH6.194", "226[1][1]", 70).
enter("EastA509ToH6.194", "228[0]", 70).
exit("EastA509ToH6.194", "228[0]", 90).
enter("EastA509ToH6.194", "228[1][0]", 90).
exit("EastA509ToH6.194", "228[1][0]", 105).
enter("EastA509ToH6.194", "228[1][1]", 105).
exit("EastA509ToH6.194", "228[1][1]", 175).
enter("EastA509ToH6.194", "481", 175).
exit("EastA509ToH6.194", "481", 185).
enter("EastA509ToH6.194", "493", 185).
exit("EastA509ToH6.194", "493", 200).
enter("EastA509ToH6.194", "[186|522]", 200).
exit("EastA509ToH6.194", "[186|522]", 320).
origin("EastSilburyToEastAvebury.54", "226[1][1]").
enter("EastSilburyToEastAvebury.54", "226[1][1]", 0).
exit("EastSilburyToEastAvebury.54", "226[1][1]", 40).
enter("EastSilburyToEastAvebury.54", "228[0]", 40).
exit("EastSilburyToEastAvebury.54", "228[0]", 45).
enter("EastSilburyToEastAvebury.54", "228[1][0]", 45).
exit("EastSilburyToEastAvebury.54", "228[1][0]", 50).
enter("EastSilburyToEastAvebury.54", "228[1][1]", 50).
exit("EastSilburyToEastAvebury.54", "228[1][1]", 90).
enter("EastSilburyToEastAvebury.54", "[482|213]", 90).
exit("EastSilburyToEastAvebury.54", "[482|213]", 100).
origin("EastSilburyToEastAvebury.129", "226[0]").
enter("EastSilburyToEastAvebury.129", "226[0]", 0).
exit("EastSilburyToEastAvebury.129", "226[0]", 20).
enter("EastSilburyToEastAvebury.129", "226[1][0]", 20).
exit("EastSilburyToEastAvebury.129", "226[1][0]", 25).
enter("EastSilburyToEastAvebury.129", "226[1][1]", 25).
exit("EastSilburyToEastAvebury.129", "226[1][1]", 95).
enter("EastSilburyToEastAvebury.129", "228[0]", 95).
exit("EastSilburyToEastAvebury.129", "228[0]", 115).
enter("EastSilburyToEastAvebury.129", "228[1][0]", 115).
exit("EastSilburyToEastAvebury.129", "228[1][0]", 130).
enter("EastSilburyToEastAvebury.129", "228[1][1]", 130).
exit("EastSilburyToEastAvebury.129", "228[1][1]", 200).
enter("EastSilburyToEastAvebury.129", "[482|213]", 200).
exit("EastSilburyToEastAvebury.129", "[482|213]", 230).
origin("EastSilburyToEastAvebury.137", "[317|216]").
enter("EastSilburyToEastAvebury.137", "[317|216]", 0).
exit("EastSilburyToEastAvebury.137", "[317|216]", 45).
enter("EastSilburyToEastAvebury.137", "226[0]", 45).
exit("EastSilburyToEastAvebury.137", "226[0]", 85).
enter("EastSilburyToEastAvebury.137", "226[1][0]", 85).
exit("EastSilburyToEastAvebury.137", "226[1][0]", 90).
enter("EastSilburyToEastAvebury.137", "226[1][1]", 90).
exit("EastSilburyToEastAvebury.137", "226[1][1]", 160).
enter("EastSilburyToEastAvebury.137", "228[0]", 160).
exit("EastSilburyToEastAvebury.137", "228[0]", 180).
enter("EastSilburyToEastAvebury.137", "228[1][0]", 180).
exit("EastSilburyToEastAvebury.137", "228[1][0]", 195).
enter("EastSilburyToEastAvebury.137", "228[1][1]", 195).
exit("EastSilburyToEastAvebury.137", "228[1][1]", 265).
enter("EastSilburyToEastAvebury.137", "[482|213]", 265).
exit("EastSilburyToEastAvebury.137", "[482|213]", 320).
origin("WestA509ToAvebury.134", "226[0]").
enter("WestA509ToAvebury.134", "226[0]", 0).
exit("WestA509ToAvebury.134", "226[0]", 10).
enter("WestA509ToAvebury.134", "226[1][0]", 10).
exit("WestA509ToAvebury.134", "226[1][0]", 15).
enter("WestA509ToAvebury.134", "226[1][1]", 15).
exit("WestA509ToAvebury.134", "226[1][1]", 55).
enter("WestA509ToAvebury.134", "228[0]", 55).
exit("WestA509ToAvebury.134", "228[0]", 60).
enter("WestA509ToAvebury.134", "228[1][0]", 60).
exit("WestA509ToAvebury.134", "228[1][0]", 65).
enter("WestA509ToAvebury.134", "228[1][1]", 65).
exit("WestA509ToAvebury.134", "228[1][1]", 105).
enter("WestA509ToAvebury.134", "[482|213]", 105).
exit("WestA509ToAvebury.134", "[482|213]", 115).
origin("EastSilburyToEastAvebury.134", "[317|216]").
enter("EastSilburyToEastAvebury.134", "[317|216]", 0).
exit("EastSilburyToEastAvebury.134", "[317|216]", 45).
enter("EastSilburyToEastAvebury.134", "226[0]", 45).
exit("EastSilburyToEastAvebury.134", "226[0]", 85).
enter("EastSilburyToEastAvebury.134", "226[1][0]", 85).
exit("EastSilburyToEastAvebury.134", "226[1][0]", 90).
enter("EastSilburyToEastAvebury.134", "226[1][1]", 90).
exit("EastSilburyToEastAvebury.134", "226[1][1]", 160).
enter("EastSilburyToEastAvebury.134", "228[0]", 160).
exit("EastSilburyToEastAvebury.134", "228[0]", 180).
enter("EastSilburyToEastAvebury.134", "228[1][0]", 180).
exit("EastSilburyToEastAvebury.134", "228[1][0]", 195).
enter("EastSilburyToEastAvebury.134", "228[1][1]", 195).
exit("EastSilburyToEastAvebury.134", "228[1][1]", 265).
enter("EastSilburyToEastAvebury.134", "[482|213]", 265).
exit("EastSilburyToEastAvebury.134", "[482|213]", 295).
origin("WestA509ToAvebury.178", "228[1][0]").
enter("WestA509ToAvebury.178", "228[1][0]", 0).
exit("WestA509ToAvebury.178", "228[1][0]", 15).
enter("WestA509ToAvebury.178", "228[1][1]", 15).
exit("WestA509ToAvebury.178", "228[1][1]", 85).
enter("WestA509ToAvebury.178", "[482|213]", 85).
exit("WestA509ToAvebury.178", "[482|213]", 140).
origin("EastSilburyToEastAvebury.60", "226[1][1]").
enter("EastSilburyToEastAvebury.60", "226[1][1]", 0).
exit("EastSilburyToEastAvebury.60", "226[1][1]", 45).
enter("EastSilburyToEastAvebury.60", "228[0]", 45).
exit("EastSilburyToEastAvebury.60", "228[0]", 50).
enter("EastSilburyToEastAvebury.60", "228[1][0]", 50).
exit("EastSilburyToEastAvebury.60", "228[1][0]", 60).
enter("EastSilburyToEastAvebury.60", "228[1][1]", 60).
exit("EastSilburyToEastAvebury.60", "228[1][1]", 80).
enter("EastSilburyToEastAvebury.60", "[482|213]", 80).
exit("EastSilburyToEastAvebury.60", "[482|213]", 90).
origin("EastSilburyToEastAvebury.143", "[317|216]").
enter("EastSilburyToEastAvebury.143", "[317|216]", 0).
exit("EastSilburyToEastAvebury.143", "[317|216]", 45).
enter("EastSilburyToEastAvebury.143", "226[0]", 45).
exit("EastSilburyToEastAvebury.143", "226[0]", 85).
enter("EastSilburyToEastAvebury.143", "226[1][0]", 85).
exit("EastSilburyToEastAvebury.143", "226[1][0]", 90).
enter("EastSilburyToEastAvebury.143", "226[1][1]", 90).
exit("EastSilburyToEastAvebury.143", "226[1][1]", 160).
enter("EastSilburyToEastAvebury.143", "228[0]", 160).
exit("EastSilburyToEastAvebury.143", "228[0]", 180).
enter("EastSilburyToEastAvebury.143", "228[1][0]", 180).
exit("EastSilburyToEastAvebury.143", "228[1][0]", 195).
enter("EastSilburyToEastAvebury.143", "228[1][1]", 195).
exit("EastSilburyToEastAvebury.143", "228[1][1]", 265).
enter("EastSilburyToEastAvebury.143", "[482|213]", 265).
exit("EastSilburyToEastAvebury.143", "[482|213]", 320).
origin("EastSilburyToEastAvebury.105", "226[0]").
enter("EastSilburyToEastAvebury.105", "226[0]", 0).
exit("EastSilburyToEastAvebury.105", "226[0]", 15).
enter("EastSilburyToEastAvebury.105", "226[1][0]", 15).
exit("EastSilburyToEastAvebury.105", "226[1][0]", 20).
enter("EastSilburyToEastAvebury.105", "226[1][1]", 20).
exit("EastSilburyToEastAvebury.105", "226[1][1]", 70).
enter("EastSilburyToEastAvebury.105", "228[0]", 70).
exit("EastSilburyToEastAvebury.105", "228[0]", 75).
enter("EastSilburyToEastAvebury.105", "228[1][0]", 75).
exit("EastSilburyToEastAvebury.105", "228[1][0]", 80).
enter("EastSilburyToEastAvebury.105", "228[1][1]", 80).
exit("EastSilburyToEastAvebury.105", "228[1][1]", 105).
enter("EastSilburyToEastAvebury.105", "[482|213]", 105).
exit("EastSilburyToEastAvebury.105", "[482|213]", 115).
origin("EastSilburyToEastAvebury.138", "[317|216]").
enter("EastSilburyToEastAvebury.138", "[317|216]", 0).
exit("EastSilburyToEastAvebury.138", "[317|216]", 45).
enter("EastSilburyToEastAvebury.138", "226[0]", 45).
exit("EastSilburyToEastAvebury.138", "226[0]", 85).
enter("EastSilburyToEastAvebury.138", "226[1][0]", 85).
exit("EastSilburyToEastAvebury.138", "226[1][0]", 90).
enter("EastSilburyToEastAvebury.138", "226[1][1]", 90).
exit("EastSilburyToEastAvebury.138", "226[1][1]", 160).
enter("EastSilburyToEastAvebury.138", "228[0]", 160).
exit("EastSilburyToEastAvebury.138", "228[0]", 180).
enter("EastSilburyToEastAvebury.138", "228[1][0]", 180).
exit("EastSilburyToEastAvebury.138", "228[1][0]", 195).
enter("EastSilburyToEastAvebury.138", "228[1][1]", 195).
exit("EastSilburyToEastAvebury.138", "228[1][1]", 265).
enter("EastSilburyToEastAvebury.138", "[482|213]", 265).
exit("EastSilburyToEastAvebury.138", "[482|213]", 320).
origin("EastA509ToH6.190", "228[1][1]").
enter("EastA509ToH6.190", "228[1][1]", 0).
exit("EastA509ToH6.190", "228[1][1]", 70).
enter("EastA509ToH6.190", "481", 70).
exit("EastA509ToH6.190", "481", 80).
enter("EastA509ToH6.190", "493", 80).
exit("EastA509ToH6.190", "493", 95).
enter("EastA509ToH6.190", "[186|522]", 95).
exit("EastA509ToH6.190", "[186|522]", 215).
origin("EastSilburyToEastAvebury.112", "228[0]").
enter("EastSilburyToEastAvebury.112", "228[0]", 0).
exit("EastSilburyToEastAvebury.112", "228[0]", 5).
enter("EastSilburyToEastAvebury.112", "228[1][0]", 5).
exit("EastSilburyToEastAvebury.112", "228[1][0]", 15).
enter("EastSilburyToEastAvebury.112", "228[1][1]", 15).
exit("EastSilburyToEastAvebury.112", "228[1][1]", 60).
enter("EastSilburyToEastAvebury.112", "[482|213]", 60).
exit("EastSilburyToEastAvebury.112", "[482|213]", 75).
origin("EastSilburyToEastAvebury.146", "161").
enter("EastSilburyToEastAvebury.146", "161", 0).
exit("EastSilburyToEastAvebury.146", "161", 45).
enter("EastSilburyToEastAvebury.146", "[429|143]", 45).
exit("EastSilburyToEastAvebury.146", "[429|143]", 65).
enter("EastSilburyToEastAvebury.146", "479", 65).
exit("EastSilburyToEastAvebury.146", "479", 100).
enter("EastSilburyToEastAvebury.146", "480", 100).
exit("EastSilburyToEastAvebury.146", "480", 115).
enter("EastSilburyToEastAvebury.146", "488", 115).
exit("EastSilburyToEastAvebury.146", "488", 155).
enter("EastSilburyToEastAvebury.146", "[482|213]", 155).
exit("EastSilburyToEastAvebury.146", "[482|213]", 165).
origin("EastSilburyToEastAvebury.116", "228[1][0]").
enter("EastSilburyToEastAvebury.116", "228[1][0]", 0).
exit("EastSilburyToEastAvebury.116", "228[1][0]", 5).
enter("EastSilburyToEastAvebury.116", "228[1][1]", 5).
exit("EastSilburyToEastAvebury.116", "228[1][1]", 55).
enter("EastSilburyToEastAvebury.116", "[482|213]", 55).
exit("EastSilburyToEastAvebury.116", "[482|213]", 65).
origin("EastA509ToH6.197", "226[1][1]").
enter("EastA509ToH6.197", "226[1][1]", 0).
exit("EastA509ToH6.197", "226[1][1]", 70).
enter("EastA509ToH6.197", "228[0]", 70).
exit("EastA509ToH6.197", "228[0]", 90).
enter("EastA509ToH6.197", "228[1][0]", 90).
exit("EastA509ToH6.197", "228[1][0]", 105).
enter("EastA509ToH6.197", "228[1][1]", 105).
exit("EastA509ToH6.197", "228[1][1]", 175).
enter("EastA509ToH6.197", "481", 175).
exit("EastA509ToH6.197", "481", 185).
enter("EastA509ToH6.197", "493", 185).
exit("EastA509ToH6.197", "493", 200).
enter("EastA509ToH6.197", "[186|522]", 200).
exit("EastA509ToH6.197", "[186|522]", 320).
origin("EastSilburyToEastAvebury.115", "228[1][1]").
enter("EastSilburyToEastAvebury.115", "228[1][1]", 0).
exit("EastSilburyToEastAvebury.115", "228[1][1]", 50).
enter("EastSilburyToEastAvebury.115", "[482|213]", 50).
exit("EastSilburyToEastAvebury.115", "[482|213]", 60).
origin("EastSilburyToEastAvebury.100", "226[0]").
enter("EastSilburyToEastAvebury.100", "226[0]", 0).
exit("EastSilburyToEastAvebury.100", "226[0]", 20).
enter("EastSilburyToEastAvebury.100", "226[1][0]", 20).
exit("EastSilburyToEastAvebury.100", "226[1][0]", 25).
enter("EastSilburyToEastAvebury.100", "226[1][1]", 25).
exit("EastSilburyToEastAvebury.100", "226[1][1]", 75).
enter("EastSilburyToEastAvebury.100", "228[0]", 75).
exit("EastSilburyToEastAvebury.100", "228[0]", 85).
enter("EastSilburyToEastAvebury.100", "228[1][0]", 85).
exit("EastSilburyToEastAvebury.100", "228[1][0]", 90).
enter("EastSilburyToEastAvebury.100", "228[1][1]", 90).
exit("EastSilburyToEastAvebury.100", "228[1][1]", 105).
enter("EastSilburyToEastAvebury.100", "[482|213]", 105).
exit("EastSilburyToEastAvebury.100", "[482|213]", 115).
origin("EastSilburyToEastAvebury.130", "226[0]").
enter("EastSilburyToEastAvebury.130", "226[0]", 0).
exit("EastSilburyToEastAvebury.130", "226[0]", 20).
enter("EastSilburyToEastAvebury.130", "226[1][0]", 20).
exit("EastSilburyToEastAvebury.130", "226[1][0]", 25).
enter("EastSilburyToEastAvebury.130", "226[1][1]", 25).
exit("EastSilburyToEastAvebury.130", "226[1][1]", 95).
enter("EastSilburyToEastAvebury.130", "228[0]", 95).
exit("EastSilburyToEastAvebury.130", "228[0]", 115).
enter("EastSilburyToEastAvebury.130", "228[1][0]", 115).
exit("EastSilburyToEastAvebury.130", "228[1][0]", 130).
enter("EastSilburyToEastAvebury.130", "228[1][1]", 130).
exit("EastSilburyToEastAvebury.130", "228[1][1]", 200).
enter("EastSilburyToEastAvebury.130", "[482|213]", 200).
exit("EastSilburyToEastAvebury.130", "[482|213]", 230).
origin("EastSilburyToEastAvebury.136", "[317|216]").
enter("EastSilburyToEastAvebury.136", "[317|216]", 0).
exit("EastSilburyToEastAvebury.136", "[317|216]", 45).
enter("EastSilburyToEastAvebury.136", "226[0]", 45).
exit("EastSilburyToEastAvebury.136", "226[0]", 85).
enter("EastSilburyToEastAvebury.136", "226[1][0]", 85).
exit("EastSilburyToEastAvebury.136", "226[1][0]", 90).
enter("EastSilburyToEastAvebury.136", "226[1][1]", 90).
exit("EastSilburyToEastAvebury.136", "226[1][1]", 160).
enter("EastSilburyToEastAvebury.136", "228[0]", 160).
exit("EastSilburyToEastAvebury.136", "228[0]", 180).
enter("EastSilburyToEastAvebury.136", "228[1][0]", 180).
exit("EastSilburyToEastAvebury.136", "228[1][0]", 195).
enter("EastSilburyToEastAvebury.136", "228[1][1]", 195).
exit("EastSilburyToEastAvebury.136", "228[1][1]", 265).
enter("EastSilburyToEastAvebury.136", "[482|213]", 265).
exit("EastSilburyToEastAvebury.136", "[482|213]", 320).
origin("WestA509ToAvebury.94", "226[0]").
enter("WestA509ToAvebury.94", "226[0]", 0).
exit("WestA509ToAvebury.94", "226[0]", 10).
enter("WestA509ToAvebury.94", "226[1][0]", 10).
exit("WestA509ToAvebury.94", "226[1][0]", 15).
enter("WestA509ToAvebury.94", "226[1][1]", 15).
exit("WestA509ToAvebury.94", "226[1][1]", 55).
enter("WestA509ToAvebury.94", "228[0]", 55).
exit("WestA509ToAvebury.94", "228[0]", 60).
enter("WestA509ToAvebury.94", "228[1][0]", 60).
exit("WestA509ToAvebury.94", "228[1][0]", 65).
enter("WestA509ToAvebury.94", "228[1][1]", 65).
exit("WestA509ToAvebury.94", "228[1][1]", 110).
enter("WestA509ToAvebury.94", "[482|213]", 110).
exit("WestA509ToAvebury.94", "[482|213]", 120).
origin("WestA509ToAvebury.124", "226[0]").
enter("WestA509ToAvebury.124", "226[0]", 0).
exit("WestA509ToAvebury.124", "226[0]", 10).
enter("WestA509ToAvebury.124", "226[1][0]", 10).
exit("WestA509ToAvebury.124", "226[1][0]", 15).
enter("WestA509ToAvebury.124", "226[1][1]", 15).
exit("WestA509ToAvebury.124", "226[1][1]", 55).
enter("WestA509ToAvebury.124", "228[0]", 55).
exit("WestA509ToAvebury.124", "228[0]", 60).
enter("WestA509ToAvebury.124", "228[1][0]", 60).
exit("WestA509ToAvebury.124", "228[1][0]", 70).
enter("WestA509ToAvebury.124", "228[1][1]", 70).
exit("WestA509ToAvebury.124", "228[1][1]", 120).
enter("WestA509ToAvebury.124", "[482|213]", 120).
exit("WestA509ToAvebury.124", "[482|213]", 130).
origin("EastSilburyToEastAvebury.141", "[317|216]").
enter("EastSilburyToEastAvebury.141", "[317|216]", 0).
exit("EastSilburyToEastAvebury.141", "[317|216]", 45).
enter("EastSilburyToEastAvebury.141", "226[0]", 45).
exit("EastSilburyToEastAvebury.141", "226[0]", 85).
enter("EastSilburyToEastAvebury.141", "226[1][0]", 85).
exit("EastSilburyToEastAvebury.141", "226[1][0]", 90).
enter("EastSilburyToEastAvebury.141", "226[1][1]", 90).
exit("EastSilburyToEastAvebury.141", "226[1][1]", 160).
enter("EastSilburyToEastAvebury.141", "228[0]", 160).
exit("EastSilburyToEastAvebury.141", "228[0]", 180).
enter("EastSilburyToEastAvebury.141", "228[1][0]", 180).
exit("EastSilburyToEastAvebury.141", "228[1][0]", 195).
enter("EastSilburyToEastAvebury.141", "228[1][1]", 195).
exit("EastSilburyToEastAvebury.141", "228[1][1]", 265).
enter("EastSilburyToEastAvebury.141", "[482|213]", 265).
exit("EastSilburyToEastAvebury.141", "[482|213]", 320).
origin("WestA509ToAvebury.156", "228[1][1]").
enter("WestA509ToAvebury.156", "228[1][1]", 0).
exit("WestA509ToAvebury.156", "228[1][1]", 70).
enter("WestA509ToAvebury.156", "[482|213]", 70).
exit("WestA509ToAvebury.156", "[482|213]", 100).
origin("WestA509ToAvebury.193", "228[0]").
enter("WestA509ToAvebury.193", "228[0]", 0).
exit("WestA509ToAvebury.193", "228[0]", 20).
enter("WestA509ToAvebury.193", "228[1][0]", 20).
exit("WestA509ToAvebury.193", "228[1][0]", 35).
enter("WestA509ToAvebury.193", "228[1][1]", 35).
exit("WestA509ToAvebury.193", "228[1][1]", 105).
enter("WestA509ToAvebury.193", "[482|213]", 105).
exit("WestA509ToAvebury.193", "[482|213]", 160).
origin("EastA509ToH6.199", "226[1][1]").
enter("EastA509ToH6.199", "226[1][1]", 0).
exit("EastA509ToH6.199", "226[1][1]", 70).
enter("EastA509ToH6.199", "228[0]", 70).
exit("EastA509ToH6.199", "228[0]", 90).
enter("EastA509ToH6.199", "228[1][0]", 90).
exit("EastA509ToH6.199", "228[1][0]", 105).
enter("EastA509ToH6.199", "228[1][1]", 105).
exit("EastA509ToH6.199", "228[1][1]", 175).
enter("EastA509ToH6.199", "481", 175).
exit("EastA509ToH6.199", "481", 185).
enter("EastA509ToH6.199", "493", 185).
exit("EastA509ToH6.199", "493", 200).
enter("EastA509ToH6.199", "[186|522]", 200).
exit("EastA509ToH6.199", "[186|522]", 320).
origin("WestA509ToAvebury.164", "228[1][1]").
enter("WestA509ToAvebury.164", "228[1][1]", 0).
exit("WestA509ToAvebury.164", "228[1][1]", 70).
enter("WestA509ToAvebury.164", "[482|213]", 70).
exit("WestA509ToAvebury.164", "[482|213]", 100).
origin("EastA509ToH6.193", "226[1][1]").
enter("EastA509ToH6.193", "226[1][1]", 0).
exit("EastA509ToH6.193", "226[1][1]", 70).
enter("EastA509ToH6.193", "228[0]", 70).
exit("EastA509ToH6.193", "228[0]", 90).
enter("EastA509ToH6.193", "228[1][0]", 90).
exit("EastA509ToH6.193", "228[1][0]", 105).
enter("EastA509ToH6.193", "228[1][1]", 105).
exit("EastA509ToH6.193", "228[1][1]", 175).
enter("EastA509ToH6.193", "481", 175).
exit("EastA509ToH6.193", "481", 185).
enter("EastA509ToH6.193", "493", 185).
exit("EastA509ToH6.193", "493", 205).
enter("EastA509ToH6.193", "[186|522]", 205).
exit("EastA509ToH6.193", "[186|522]", 325).
origin("EastSilburyToEastAvebury.61", "226[1][1]").
enter("EastSilburyToEastAvebury.61", "226[1][1]", 0).
exit("EastSilburyToEastAvebury.61", "226[1][1]", 40).
enter("EastSilburyToEastAvebury.61", "228[0]", 40).
exit("EastSilburyToEastAvebury.61", "228[0]", 45).
enter("EastSilburyToEastAvebury.61", "228[1][0]", 45).
exit("EastSilburyToEastAvebury.61", "228[1][0]", 50).
enter("EastSilburyToEastAvebury.61", "228[1][1]", 50).
exit("EastSilburyToEastAvebury.61", "228[1][1]", 90).
enter("EastSilburyToEastAvebury.61", "[482|213]", 90).
exit("EastSilburyToEastAvebury.61", "[482|213]", 100).
origin("WestA509ToAvebury.70", "226[1][1]").
enter("WestA509ToAvebury.70", "226[1][1]", 0).
exit("WestA509ToAvebury.70", "226[1][1]", 40).
enter("WestA509ToAvebury.70", "228[0]", 40).
exit("WestA509ToAvebury.70", "228[0]", 45).
enter("WestA509ToAvebury.70", "228[1][0]", 45).
exit("WestA509ToAvebury.70", "228[1][0]", 50).
enter("WestA509ToAvebury.70", "228[1][1]", 50).
exit("WestA509ToAvebury.70", "228[1][1]", 90).
enter("WestA509ToAvebury.70", "[482|213]", 90).
exit("WestA509ToAvebury.70", "[482|213]", 100).
origin("EastA509ToH6.196", "226[1][1]").
enter("EastA509ToH6.196", "226[1][1]", 0).
exit("EastA509ToH6.196", "226[1][1]", 70).
enter("EastA509ToH6.196", "228[0]", 70).
exit("EastA509ToH6.196", "228[0]", 90).
enter("EastA509ToH6.196", "228[1][0]", 90).
exit("EastA509ToH6.196", "228[1][0]", 105).
enter("EastA509ToH6.196", "228[1][1]", 105).
exit("EastA509ToH6.196", "228[1][1]", 175).
enter("EastA509ToH6.196", "481", 175).
exit("EastA509ToH6.196", "481", 185).
enter("EastA509ToH6.196", "493", 185).
exit("EastA509ToH6.196", "493", 200).
enter("EastA509ToH6.196", "[186|522]", 200).
exit("EastA509ToH6.196", "[186|522]", 320).
origin("EastA509ToH6.191", "228[1][1]").
enter("EastA509ToH6.191", "228[1][1]", 0).
exit("EastA509ToH6.191", "228[1][1]", 70).
enter("EastA509ToH6.191", "481", 70).
exit("EastA509ToH6.191", "481", 80).
enter("EastA509ToH6.191", "493", 80).
exit("EastA509ToH6.191", "493", 95).
enter("EastA509ToH6.191", "[186|522]", 95).
exit("EastA509ToH6.191", "[186|522]", 215).
origin("EastSilburyToEastAvebury.108", "228[0]").
enter("EastSilburyToEastAvebury.108", "228[0]", 0).
exit("EastSilburyToEastAvebury.108", "228[0]", 5).
enter("EastSilburyToEastAvebury.108", "228[1][0]", 5).
exit("EastSilburyToEastAvebury.108", "228[1][0]", 15).
enter("EastSilburyToEastAvebury.108", "228[1][1]", 15).
exit("EastSilburyToEastAvebury.108", "228[1][1]", 60).
enter("EastSilburyToEastAvebury.108", "[482|213]", 60).
exit("EastSilburyToEastAvebury.108", "[482|213]", 70).
origin("EastA509ToH6.187", "228[1][1]").
enter("EastA509ToH6.187", "228[1][1]", 0).
exit("EastA509ToH6.187", "228[1][1]", 70).
enter("EastA509ToH6.187", "481", 70).
exit("EastA509ToH6.187", "481", 80).
enter("EastA509ToH6.187", "493", 80).
exit("EastA509ToH6.187", "493", 100).
enter("EastA509ToH6.187", "[186|522]", 100).
exit("EastA509ToH6.187", "[186|522]", 220).
origin("WestA509ToAvebury.163", "228[1][1]").
enter("WestA509ToAvebury.163", "228[1][1]", 0).
exit("WestA509ToAvebury.163", "228[1][1]", 70).
enter("WestA509ToAvebury.163", "[482|213]", 70).
exit("WestA509ToAvebury.163", "[482|213]", 100).
origin("EastSilburyToEastAvebury.91", "228[1][0]").
enter("EastSilburyToEastAvebury.91", "228[1][0]", 0).
exit("EastSilburyToEastAvebury.91", "228[1][0]", 5).
enter("EastSilburyToEastAvebury.91", "228[1][1]", 5).
exit("EastSilburyToEastAvebury.91", "228[1][1]", 45).
enter("EastSilburyToEastAvebury.91", "[482|213]", 45).
exit("EastSilburyToEastAvebury.91", "[482|213]", 55).
origin("EastSilburyToEastAvebury.133", "[317|216]").
enter("EastSilburyToEastAvebury.133", "[317|216]", 0).
exit("EastSilburyToEastAvebury.133", "[317|216]", 45).
enter("EastSilburyToEastAvebury.133", "226[0]", 45).
exit("EastSilburyToEastAvebury.133", "226[0]", 85).
enter("EastSilburyToEastAvebury.133", "226[1][0]", 85).
exit("EastSilburyToEastAvebury.133", "226[1][0]", 90).
enter("EastSilburyToEastAvebury.133", "226[1][1]", 90).
exit("EastSilburyToEastAvebury.133", "226[1][1]", 160).
enter("EastSilburyToEastAvebury.133", "228[0]", 160).
exit("EastSilburyToEastAvebury.133", "228[0]", 180).
enter("EastSilburyToEastAvebury.133", "228[1][0]", 180).
exit("EastSilburyToEastAvebury.133", "228[1][0]", 195).
enter("EastSilburyToEastAvebury.133", "228[1][1]", 195).
exit("EastSilburyToEastAvebury.133", "228[1][1]", 265).
enter("EastSilburyToEastAvebury.133", "[482|213]", 265).
exit("EastSilburyToEastAvebury.133", "[482|213]", 295).
origin("EastSilburyToEastAvebury.85", "226[0]").
enter("EastSilburyToEastAvebury.85", "226[0]", 0).
exit("EastSilburyToEastAvebury.85", "226[0]", 15).
enter("EastSilburyToEastAvebury.85", "226[1][0]", 15).
exit("EastSilburyToEastAvebury.85", "226[1][0]", 20).
enter("EastSilburyToEastAvebury.85", "226[1][1]", 20).
exit("EastSilburyToEastAvebury.85", "226[1][1]", 70).
enter("EastSilburyToEastAvebury.85", "228[0]", 70).
exit("EastSilburyToEastAvebury.85", "228[0]", 75).
enter("EastSilburyToEastAvebury.85", "228[1][0]", 75).
exit("EastSilburyToEastAvebury.85", "228[1][0]", 85).
enter("EastSilburyToEastAvebury.85", "228[1][1]", 85).
exit("EastSilburyToEastAvebury.85", "228[1][1]", 105).
enter("EastSilburyToEastAvebury.85", "[482|213]", 105).
exit("EastSilburyToEastAvebury.85", "[482|213]", 115).
origin("EastSilburyToEastAvebury.149", "302").
enter("EastSilburyToEastAvebury.149", "302", 0).
exit("EastSilburyToEastAvebury.149", "302", 40).
enter("EastSilburyToEastAvebury.149", "30", 40).
exit("EastSilburyToEastAvebury.149", "30", 50).
enter("EastSilburyToEastAvebury.149", "379", 50).
exit("EastSilburyToEastAvebury.149", "379", 65).
enter("EastSilburyToEastAvebury.149", "(2[1][1])", 65).
exit("EastSilburyToEastAvebury.149", "(2[1][1])", 75).
enter("EastSilburyToEastAvebury.149", "[5|6]", 75).
exit("EastSilburyToEastAvebury.149", "[5|6]", 85).
enter("EastSilburyToEastAvebury.149", "[7|8]", 85).
exit("EastSilburyToEastAvebury.149", "[7|8]", 100).
enter("EastSilburyToEastAvebury.149", "[9|10]", 100).
exit("EastSilburyToEastAvebury.149", "[9|10]", 140).
enter("EastSilburyToEastAvebury.149", "161", 140).
exit("EastSilburyToEastAvebury.149", "161", 185).
enter("EastSilburyToEastAvebury.149", "426", 185).
exit("EastSilburyToEastAvebury.149", "426", 195).
enter("EastSilburyToEastAvebury.149", "430", 195).
exit("EastSilburyToEastAvebury.149", "430", 205).
enter("EastSilburyToEastAvebury.149", "446", 205).
exit("EastSilburyToEastAvebury.149", "446", 215).
enter("EastSilburyToEastAvebury.149", "464", 215).
exit("EastSilburyToEastAvebury.149", "464", 255).
enter("EastSilburyToEastAvebury.149", "[482|213]", 255).
exit("EastSilburyToEastAvebury.149", "[482|213]", 265).
origin("EastSilburyToEastAvebury.114", "226[1][1]").
enter("EastSilburyToEastAvebury.114", "226[1][1]", 0).
exit("EastSilburyToEastAvebury.114", "226[1][1]", 60).
enter("EastSilburyToEastAvebury.114", "228[0]", 60).
exit("EastSilburyToEastAvebury.114", "228[0]", 65).
enter("EastSilburyToEastAvebury.114", "228[1][0]", 65).
exit("EastSilburyToEastAvebury.114", "228[1][0]", 70).
enter("EastSilburyToEastAvebury.114", "228[1][1]", 70).
exit("EastSilburyToEastAvebury.114", "228[1][1]", 120).
enter("EastSilburyToEastAvebury.114", "[482|213]", 120).
exit("EastSilburyToEastAvebury.114", "[482|213]", 130).
origin("EastSilburyToEastAvebury.90", "228[1][1]").
enter("EastSilburyToEastAvebury.90", "228[1][1]", 0).
exit("EastSilburyToEastAvebury.90", "228[1][1]", 40).
enter("EastSilburyToEastAvebury.90", "[482|213]", 40).
exit("EastSilburyToEastAvebury.90", "[482|213]", 50).
origin("WestA509ToAvebury.181", "228[1][0]").
enter("WestA509ToAvebury.181", "228[1][0]", 0).
exit("WestA509ToAvebury.181", "228[1][0]", 15).
enter("WestA509ToAvebury.181", "228[1][1]", 15).
exit("WestA509ToAvebury.181", "228[1][1]", 85).
enter("WestA509ToAvebury.181", "[482|213]", 85).
exit("WestA509ToAvebury.181", "[482|213]", 140).
origin("WestA509ToAvebury.169", "228[1][1]").
enter("WestA509ToAvebury.169", "228[1][1]", 0).
exit("WestA509ToAvebury.169", "228[1][1]", 70).
enter("WestA509ToAvebury.169", "[482|213]", 70).
exit("WestA509ToAvebury.169", "[482|213]", 100).
origin("EastSilburyToEastAvebury.140", "[317|216]").
enter("EastSilburyToEastAvebury.140", "[317|216]", 0).
exit("EastSilburyToEastAvebury.140", "[317|216]", 45).
enter("EastSilburyToEastAvebury.140", "226[0]", 45).
exit("EastSilburyToEastAvebury.140", "226[0]", 85).
enter("EastSilburyToEastAvebury.140", "226[1][0]", 85).
exit("EastSilburyToEastAvebury.140", "226[1][0]", 90).
enter("EastSilburyToEastAvebury.140", "226[1][1]", 90).
exit("EastSilburyToEastAvebury.140", "226[1][1]", 160).
enter("EastSilburyToEastAvebury.140", "228[0]", 160).
exit("EastSilburyToEastAvebury.140", "228[0]", 180).
enter("EastSilburyToEastAvebury.140", "228[1][0]", 180).
exit("EastSilburyToEastAvebury.140", "228[1][0]", 195).
enter("EastSilburyToEastAvebury.140", "228[1][1]", 195).
exit("EastSilburyToEastAvebury.140", "228[1][1]", 265).
enter("EastSilburyToEastAvebury.140", "[482|213]", 265).
exit("EastSilburyToEastAvebury.140", "[482|213]", 320).
origin("WestA509ToAvebury.120", "228[1][0]").
enter("WestA509ToAvebury.120", "228[1][0]", 0).
exit("WestA509ToAvebury.120", "228[1][0]", 10).
enter("WestA509ToAvebury.120", "228[1][1]", 10).
exit("WestA509ToAvebury.120", "228[1][1]", 55).
enter("WestA509ToAvebury.120", "[482|213]", 55).
exit("WestA509ToAvebury.120", "[482|213]", 65).
origin("EastSilburyToEastAvebury.148", "302").
enter("EastSilburyToEastAvebury.148", "302", 0).
exit("EastSilburyToEastAvebury.148", "302", 40).
enter("EastSilburyToEastAvebury.148", "30", 40).
exit("EastSilburyToEastAvebury.148", "30", 50).
enter("EastSilburyToEastAvebury.148", "379", 50).
exit("EastSilburyToEastAvebury.148", "379", 65).
enter("EastSilburyToEastAvebury.148", "(2[1][1])", 65).
exit("EastSilburyToEastAvebury.148", "(2[1][1])", 75).
enter("EastSilburyToEastAvebury.148", "[5|6]", 75).
exit("EastSilburyToEastAvebury.148", "[5|6]", 85).
enter("EastSilburyToEastAvebury.148", "[7|8]", 85).
exit("EastSilburyToEastAvebury.148", "[7|8]", 100).
enter("EastSilburyToEastAvebury.148", "[9|10]", 100).
exit("EastSilburyToEastAvebury.148", "[9|10]", 140).
enter("EastSilburyToEastAvebury.148", "161", 140).
exit("EastSilburyToEastAvebury.148", "161", 185).
enter("EastSilburyToEastAvebury.148", "426", 185).
exit("EastSilburyToEastAvebury.148", "426", 195).
enter("EastSilburyToEastAvebury.148", "430", 195).
exit("EastSilburyToEastAvebury.148", "430", 205).
enter("EastSilburyToEastAvebury.148", "446", 205).
exit("EastSilburyToEastAvebury.148", "446", 215).
enter("EastSilburyToEastAvebury.148", "464", 215).
exit("EastSilburyToEastAvebury.148", "464", 255).
enter("EastSilburyToEastAvebury.148", "[482|213]", 255).
exit("EastSilburyToEastAvebury.148", "[482|213]", 265).
origin("EastSilburyToEastAvebury.82", "226[0]").
enter("EastSilburyToEastAvebury.82", "226[0]", 0).
exit("EastSilburyToEastAvebury.82", "226[0]", 10).
enter("EastSilburyToEastAvebury.82", "226[1][0]", 10).
exit("EastSilburyToEastAvebury.82", "226[1][0]", 15).
enter("EastSilburyToEastAvebury.82", "226[1][1]", 15).
exit("EastSilburyToEastAvebury.82", "226[1][1]", 65).
enter("EastSilburyToEastAvebury.82", "228[0]", 65).
exit("EastSilburyToEastAvebury.82", "228[0]", 75).
enter("EastSilburyToEastAvebury.82", "228[1][0]", 75).
exit("EastSilburyToEastAvebury.82", "228[1][0]", 85).
enter("EastSilburyToEastAvebury.82", "228[1][1]", 85).
exit("EastSilburyToEastAvebury.82", "228[1][1]", 105).
enter("EastSilburyToEastAvebury.82", "[482|213]", 105).
exit("EastSilburyToEastAvebury.82", "[482|213]", 115).
origin("EastSilburyToEastAvebury.132", "[317|216]").
enter("EastSilburyToEastAvebury.132", "[317|216]", 0).
exit("EastSilburyToEastAvebury.132", "[317|216]", 45).
enter("EastSilburyToEastAvebury.132", "226[0]", 45).
exit("EastSilburyToEastAvebury.132", "226[0]", 85).
enter("EastSilburyToEastAvebury.132", "226[1][0]", 85).
exit("EastSilburyToEastAvebury.132", "226[1][0]", 90).
enter("EastSilburyToEastAvebury.132", "226[1][1]", 90).
exit("EastSilburyToEastAvebury.132", "226[1][1]", 160).
enter("EastSilburyToEastAvebury.132", "228[0]", 160).
exit("EastSilburyToEastAvebury.132", "228[0]", 180).
enter("EastSilburyToEastAvebury.132", "228[1][0]", 180).
exit("EastSilburyToEastAvebury.132", "228[1][0]", 195).
enter("EastSilburyToEastAvebury.132", "228[1][1]", 195).
exit("EastSilburyToEastAvebury.132", "228[1][1]", 265).
enter("EastSilburyToEastAvebury.132", "[482|213]", 265).
exit("EastSilburyToEastAvebury.132", "[482|213]", 295).
origin("EastSilburyToEastAvebury.150", "[317|216]").
enter("EastSilburyToEastAvebury.150", "[317|216]", 0).
exit("EastSilburyToEastAvebury.150", "[317|216]", 45).
enter("EastSilburyToEastAvebury.150", "226[0]", 45).
exit("EastSilburyToEastAvebury.150", "226[0]", 65).
enter("EastSilburyToEastAvebury.150", "226[1][0]", 65).
exit("EastSilburyToEastAvebury.150", "226[1][0]", 75).
enter("EastSilburyToEastAvebury.150", "226[1][1]", 75).
exit("EastSilburyToEastAvebury.150", "226[1][1]", 135).
enter("EastSilburyToEastAvebury.150", "228[0]", 135).
exit("EastSilburyToEastAvebury.150", "228[0]", 165).
enter("EastSilburyToEastAvebury.150", "228[1][0]", 165).
exit("EastSilburyToEastAvebury.150", "228[1][0]", 195).
enter("EastSilburyToEastAvebury.150", "228[1][1]", 195).
exit("EastSilburyToEastAvebury.150", "228[1][1]", 250).
enter("EastSilburyToEastAvebury.150", "[482|213]", 250).
exit("EastSilburyToEastAvebury.150", "[482|213]", 260).
origin("EastSilburyToEastAvebury.113", "[152|153]").
enter("EastSilburyToEastAvebury.113", "[152|153]", 0).
exit("EastSilburyToEastAvebury.113", "[152|153]", 40).
enter("EastSilburyToEastAvebury.113", "228[0]", 40).
exit("EastSilburyToEastAvebury.113", "228[0]", 45).
enter("EastSilburyToEastAvebury.113", "228[1][0]", 45).
exit("EastSilburyToEastAvebury.113", "228[1][0]", 55).
enter("EastSilburyToEastAvebury.113", "228[1][1]", 55).
exit("EastSilburyToEastAvebury.113", "228[1][1]", 100).
enter("EastSilburyToEastAvebury.113", "[482|213]", 100).
exit("EastSilburyToEastAvebury.113", "[482|213]", 110).
origin("EastSilburyToEastAvebury.131", "226[0]").
enter("EastSilburyToEastAvebury.131", "226[0]", 0).
exit("EastSilburyToEastAvebury.131", "226[0]", 40).
enter("EastSilburyToEastAvebury.131", "226[1][0]", 40).
exit("EastSilburyToEastAvebury.131", "226[1][0]", 45).
enter("EastSilburyToEastAvebury.131", "226[1][1]", 45).
exit("EastSilburyToEastAvebury.131", "226[1][1]", 115).
enter("EastSilburyToEastAvebury.131", "228[0]", 115).
exit("EastSilburyToEastAvebury.131", "228[0]", 135).
enter("EastSilburyToEastAvebury.131", "228[1][0]", 135).
exit("EastSilburyToEastAvebury.131", "228[1][0]", 150).
enter("EastSilburyToEastAvebury.131", "228[1][1]", 150).
exit("EastSilburyToEastAvebury.131", "228[1][1]", 220).
enter("EastSilburyToEastAvebury.131", "[482|213]", 220).
exit("EastSilburyToEastAvebury.131", "[482|213]", 250).
origin("EastSilburyToEastAvebury.144", "[317|216]").
enter("EastSilburyToEastAvebury.144", "[317|216]", 0).
exit("EastSilburyToEastAvebury.144", "[317|216]", 45).
enter("EastSilburyToEastAvebury.144", "226[0]", 45).
exit("EastSilburyToEastAvebury.144", "226[0]", 180).
enter("EastSilburyToEastAvebury.144", "226[1][0]", 180).
exit("EastSilburyToEastAvebury.144", "226[1][0]", 190).
enter("EastSilburyToEastAvebury.144", "226[1][1]", 190).
exit("EastSilburyToEastAvebury.144", "226[1][1]", 245).
enter("EastSilburyToEastAvebury.144", "228[0]", 245).
exit("EastSilburyToEastAvebury.144", "228[0]", 250).
enter("EastSilburyToEastAvebury.144", "228[1][0]", 250).
exit("EastSilburyToEastAvebury.144", "228[1][0]", 270).
enter("EastSilburyToEastAvebury.144", "228[1][1]", 270).
exit("EastSilburyToEastAvebury.144", "228[1][1]", 320).
enter("EastSilburyToEastAvebury.144", "[482|213]", 320).
exit("EastSilburyToEastAvebury.144", "[482|213]", 330).
origin("EastSilburyToEastAvebury.79", "226[0]").
enter("EastSilburyToEastAvebury.79", "226[0]", 0).
exit("EastSilburyToEastAvebury.79", "226[0]", 15).
enter("EastSilburyToEastAvebury.79", "226[1][0]", 15).
exit("EastSilburyToEastAvebury.79", "226[1][0]", 20).
enter("EastSilburyToEastAvebury.79", "226[1][1]", 20).
exit("EastSilburyToEastAvebury.79", "226[1][1]", 60).
enter("EastSilburyToEastAvebury.79", "228[0]", 60).
exit("EastSilburyToEastAvebury.79", "228[0]", 65).
enter("EastSilburyToEastAvebury.79", "228[1][0]", 65).
exit("EastSilburyToEastAvebury.79", "228[1][0]", 75).
enter("EastSilburyToEastAvebury.79", "228[1][1]", 75).
exit("EastSilburyToEastAvebury.79", "228[1][1]", 105).
enter("EastSilburyToEastAvebury.79", "[482|213]", 105).
exit("EastSilburyToEastAvebury.79", "[482|213]", 115).
origin("WestA509ToAvebury.189", "228[0]").
enter("WestA509ToAvebury.189", "228[0]", 0).
exit("WestA509ToAvebury.189", "228[0]", 20).
enter("WestA509ToAvebury.189", "228[1][0]", 20).
exit("WestA509ToAvebury.189", "228[1][0]", 35).
enter("WestA509ToAvebury.189", "228[1][1]", 35).
exit("WestA509ToAvebury.189", "228[1][1]", 105).
enter("WestA509ToAvebury.189", "[482|213]", 105).
exit("WestA509ToAvebury.189", "[482|213]", 160).
origin("EastA509ToH6.189", "228[1][1]").
enter("EastA509ToH6.189", "228[1][1]", 0).
exit("EastA509ToH6.189", "228[1][1]", 70).
enter("EastA509ToH6.189", "481", 70).
exit("EastA509ToH6.189", "481", 80).
enter("EastA509ToH6.189", "493", 80).
exit("EastA509ToH6.189", "493", 95).
enter("EastA509ToH6.189", "[186|522]", 95).
exit("EastA509ToH6.189", "[186|522]", 215).
origin("WestA509ToAvebury.66", "226[1][1]").
enter("WestA509ToAvebury.66", "226[1][1]", 0).
exit("WestA509ToAvebury.66", "226[1][1]", 40).
enter("WestA509ToAvebury.66", "228[0]", 40).
exit("WestA509ToAvebury.66", "228[0]", 45).
enter("WestA509ToAvebury.66", "228[1][0]", 45).
exit("WestA509ToAvebury.66", "228[1][0]", 50).
enter("WestA509ToAvebury.66", "228[1][1]", 50).
exit("WestA509ToAvebury.66", "228[1][1]", 90).
enter("WestA509ToAvebury.66", "[482|213]", 90).
exit("WestA509ToAvebury.66", "[482|213]", 100).
origin("EastSilburyToEastAvebury.142", "[317|216]").
enter("EastSilburyToEastAvebury.142", "[317|216]", 0).
exit("EastSilburyToEastAvebury.142", "[317|216]", 45).
enter("EastSilburyToEastAvebury.142", "226[0]", 45).
exit("EastSilburyToEastAvebury.142", "226[0]", 85).
enter("EastSilburyToEastAvebury.142", "226[1][0]", 85).
exit("EastSilburyToEastAvebury.142", "226[1][0]", 90).
enter("EastSilburyToEastAvebury.142", "226[1][1]", 90).
exit("EastSilburyToEastAvebury.142", "226[1][1]", 160).
enter("EastSilburyToEastAvebury.142", "228[0]", 160).
exit("EastSilburyToEastAvebury.142", "228[0]", 180).
enter("EastSilburyToEastAvebury.142", "228[1][0]", 180).
exit("EastSilburyToEastAvebury.142", "228[1][0]", 195).
enter("EastSilburyToEastAvebury.142", "228[1][1]", 195).
exit("EastSilburyToEastAvebury.142", "228[1][1]", 265).
enter("EastSilburyToEastAvebury.142", "[482|213]", 265).
exit("EastSilburyToEastAvebury.142", "[482|213]", 320).
origin("WestA509ToAvebury.196", "228[1][1]").
enter("WestA509ToAvebury.196", "228[1][1]", 0).
exit("WestA509ToAvebury.196", "228[1][1]", 70).
enter("WestA509ToAvebury.196", "[482|213]", 70).
exit("WestA509ToAvebury.196", "[482|213]", 125).
origin("EastSilburyToEastAvebury.89", "228[1][1]").
enter("EastSilburyToEastAvebury.89", "228[1][1]", 0).
exit("EastSilburyToEastAvebury.89", "228[1][1]", 40).
enter("EastSilburyToEastAvebury.89", "[482|213]", 40).
exit("EastSilburyToEastAvebury.89", "[482|213]", 50).
origin("WestA509ToAvebury.194", "228[1][1]").
enter("WestA509ToAvebury.194", "228[1][1]", 0).
exit("WestA509ToAvebury.194", "228[1][1]", 70).
enter("WestA509ToAvebury.194", "[482|213]", 70).
exit("WestA509ToAvebury.194", "[482|213]", 125).
origin("EastA509ToH6.188", "228[1][1]").
enter("EastA509ToH6.188", "228[1][1]", 0).
exit("EastA509ToH6.188", "228[1][1]", 70).
enter("EastA509ToH6.188", "481", 70).
exit("EastA509ToH6.188", "481", 80).
enter("EastA509ToH6.188", "493", 80).
exit("EastA509ToH6.188", "493", 100).
enter("EastA509ToH6.188", "[186|522]", 100).
exit("EastA509ToH6.188", "[186|522]", 220).
roundabout("ROUND1", 8).
streetInRoundabout("(471)", "ROUND1").
streetInRoundabout("(471|478)", "ROUND1").
streetInRoundabout("(471|478|142[1][0])", "ROUND1").
streetInRoundabout("(478|142[1][0]|470[1])", "ROUND1").
streetInRoundabout("(478)", "ROUND1").
streetInRoundabout("(478|142[1][0])", "ROUND1").
streetInRoundabout("(142[1][0]|470[1])", "ROUND1").
streetInRoundabout("(142[1][0]|470[1]|471)", "ROUND1").
streetInRoundabout("(142[1][0])", "ROUND1").
streetInRoundabout("(470[1])", "ROUND1").
streetInRoundabout("(470[1]|471)", "ROUND1").
streetInRoundabout("(470[1]|471|478)", "ROUND1").
roundabout("ROUND2", 3).
streetInRoundabout("(193|192)", "ROUND2").
streetInRoundabout("(193)", "ROUND2").
streetInRoundabout("(194)", "ROUND2").
streetInRoundabout("(194|193)", "ROUND2").
streetInRoundabout("(192|194)", "ROUND2").
streetInRoundabout("(192)", "ROUND2").
roundabout("ROUND3", 10).
streetInRoundabout("(19[1][0])", "ROUND3").
streetInRoundabout("(19[1][0]|19[1][1]|23)", "ROUND3").
streetInRoundabout("(19[1][0]|19[1][1])", "ROUND3").
streetInRoundabout("(19[1][1]|23|19[0])", "ROUND3").
streetInRoundabout("(19[1][1]|23)", "ROUND3").
streetInRoundabout("(19[1][1])", "ROUND3").
streetInRoundabout("(19[0])", "ROUND3").
streetInRoundabout("(19[0]|19[1][0])", "ROUND3").
streetInRoundabout("(19[0]|19[1][0]|19[1][1])", "ROUND3").
streetInRoundabout("(23|19[0])", "ROUND3").
streetInRoundabout("(23|19[0]|19[1][0])", "ROUND3").
streetInRoundabout("(23)", "ROUND3").
roundabout("ROUND4", 10).
streetInRoundabout("(245)", "ROUND4").
streetInRoundabout("(245|246[0])", "ROUND4").
streetInRoundabout("(245|246[0]|247[0])", "ROUND4").
streetInRoundabout("(245|246[0]|247[0]|247[1][0])", "ROUND4").
streetInRoundabout("(246[0]|247[0]|247[1][0]|247[1][1])", "ROUND4").
streetInRoundabout("(246[0])", "ROUND4").
streetInRoundabout("(246[0]|247[0])", "ROUND4").
streetInRoundabout("(246[0]|247[0]|247[1][0])", "ROUND4").
streetInRoundabout("(247[0]|247[1][0]|247[1][1])", "ROUND4").
streetInRoundabout("(247[0]|247[1][0]|247[1][1]|245)", "ROUND4").
streetInRoundabout("(247[0])", "ROUND4").
streetInRoundabout("(247[0]|247[1][0])", "ROUND4").
streetInRoundabout("(247[1][0]|247[1][1])", "ROUND4").
streetInRoundabout("(247[1][0]|247[1][1]|245)", "ROUND4").
streetInRoundabout("(247[1][0]|247[1][1]|245|246[0])", "ROUND4").
streetInRoundabout("(247[1][0])", "ROUND4").
streetInRoundabout("(247[1][1])", "ROUND4").
streetInRoundabout("(247[1][1]|245)", "ROUND4").
streetInRoundabout("(247[1][1]|245|246[0])", "ROUND4").
streetInRoundabout("(247[1][1]|245|246[0]|247[0])", "ROUND4").
roundabout("ROUND5", 14).
streetInRoundabout("(254|252[0])", "ROUND5").
streetInRoundabout("(254|252[0]|252[1][0])", "ROUND5").
streetInRoundabout("(254|252[0]|252[1][0]|252[1][1])", "ROUND5").
streetInRoundabout("(254|252[0]|252[1][0]|252[1][1]|253.0|253.14)", "ROUND5").
streetInRoundabout("(254)", "ROUND5").
streetInRoundabout("(254|252[0]|252[1][0]|252[1][1]|253.0)", "ROUND5").
streetInRoundabout("(252[1][0]|252[1][1]|253.0|253.14|255[1])", "ROUND5").
streetInRoundabout("(252[1][0])", "ROUND5").
streetInRoundabout("(252[1][0]|252[1][1])", "ROUND5").
streetInRoundabout("(252[1][0]|252[1][1]|253.0|253.14)", "ROUND5").
streetInRoundabout("(252[1][0]|252[1][1]|253.0|253.14|255[1]|254)", "ROUND5").
streetInRoundabout("(252[1][0]|252[1][1]|253.0)", "ROUND5").
streetInRoundabout("(252[1][1]|253.0|253.14|255[1])", "ROUND5").
streetInRoundabout("(252[1][1]|253.0|253.14|255[1]|254|252[0])", "ROUND5").
streetInRoundabout("(252[1][1])", "ROUND5").
streetInRoundabout("(252[1][1]|253.0|253.14)", "ROUND5").
streetInRoundabout("(252[1][1]|253.0|253.14|255[1]|254)", "ROUND5").
streetInRoundabout("(252[1][1]|253.0)", "ROUND5").
streetInRoundabout("(253.0|253.14|255[1])", "ROUND5").
streetInRoundabout("(253.0|253.14|255[1]|254|252[0])", "ROUND5").
streetInRoundabout("(253.0|253.14|255[1]|254|252[0]|252[1][0])", "ROUND5").
streetInRoundabout("(253.0|253.14)", "ROUND5").
streetInRoundabout("(253.0|253.14|255[1]|254)", "ROUND5").
streetInRoundabout("(253.0)", "ROUND5").
streetInRoundabout("(255[1])", "ROUND5").
streetInRoundabout("(255[1]|254|252[0])", "ROUND5").
streetInRoundabout("(255[1]|254|252[0]|252[1][0])", "ROUND5").
streetInRoundabout("(255[1]|254|252[0]|252[1][0]|252[1][1])", "ROUND5").
streetInRoundabout("(255[1]|254)", "ROUND5").
streetInRoundabout("(255[1]|254|252[0]|252[1][0]|252[1][1]|253.0)", "ROUND5").
streetInRoundabout("(252[0]|252[1][0]|252[1][1]|253.0|253.14|255[1])", "ROUND5").
streetInRoundabout("(252[0])", "ROUND5").
streetInRoundabout("(252[0]|252[1][0])", "ROUND5").
streetInRoundabout("(252[0]|252[1][0]|252[1][1])", "ROUND5").
streetInRoundabout("(252[0]|252[1][0]|252[1][1]|253.0|253.14)", "ROUND5").
streetInRoundabout("(252[0]|252[1][0]|252[1][1]|253.0)", "ROUND5").
streetInRoundabout("(253.14|255[1])", "ROUND5").
streetInRoundabout("(253.14|255[1]|254|252[0])", "ROUND5").
streetInRoundabout("(253.14|255[1]|254|252[0]|252[1][0])", "ROUND5").
streetInRoundabout("(253.14|255[1]|254|252[0]|252[1][0]|252[1][1])", "ROUND5").
streetInRoundabout("(253.14)", "ROUND5").
streetInRoundabout("(253.14|255[1]|254)", "ROUND5").
roundabout("ROUND6", 3).
streetInRoundabout("(284|285)", "ROUND6").
streetInRoundabout("(284)", "ROUND6").
streetInRoundabout("(283)", "ROUND6").
streetInRoundabout("(283|284)", "ROUND6").
streetInRoundabout("(285|283)", "ROUND6").
streetInRoundabout("(285)", "ROUND6").
roundabout("ROUND7", 12).
streetInRoundabout("(2[0])", "ROUND7").
streetInRoundabout("(2[0]|2[1][0])", "ROUND7").
streetInRoundabout("(2[0]|2[1][0]|2[1][1])", "ROUND7").
streetInRoundabout("(2[0]|2[1][0]|2[1][1]|3)", "ROUND7").
streetInRoundabout("(2[0]|2[1][0]|2[1][1]|3|4[0])", "ROUND7").
streetInRoundabout("(2[1][0]|2[1][1]|3|4[0]|4[1])", "ROUND7").
streetInRoundabout("(2[1][0])", "ROUND7").
streetInRoundabout("(2[1][0]|2[1][1])", "ROUND7").
streetInRoundabout("(2[1][0]|2[1][1]|3)", "ROUND7").
streetInRoundabout("(2[1][0]|2[1][1]|3|4[0])", "ROUND7").
streetInRoundabout("(2[1][1]|3|4[0]|4[1])", "ROUND7").
streetInRoundabout("(2[1][1]|3|4[0]|4[1]|2[0])", "ROUND7").
streetInRoundabout("(2[1][1])", "ROUND7").
streetInRoundabout("(2[1][1]|3)", "ROUND7").
streetInRoundabout("(2[1][1]|3|4[0])", "ROUND7").
streetInRoundabout("(3|4[0]|4[1])", "ROUND7").
streetInRoundabout("(3|4[0]|4[1]|2[0])", "ROUND7").
streetInRoundabout("(3|4[0]|4[1]|2[0]|2[1][0])", "ROUND7").
streetInRoundabout("(3)", "ROUND7").
streetInRoundabout("(3|4[0])", "ROUND7").
streetInRoundabout("(4[0]|4[1])", "ROUND7").
streetInRoundabout("(4[0]|4[1]|2[0])", "ROUND7").
streetInRoundabout("(4[0]|4[1]|2[0]|2[1][0])", "ROUND7").
streetInRoundabout("(4[0]|4[1]|2[0]|2[1][0]|2[1][1])", "ROUND7").
streetInRoundabout("(4[0])", "ROUND7").
streetInRoundabout("(4[1])", "ROUND7").
streetInRoundabout("(4[1]|2[0])", "ROUND7").
streetInRoundabout("(4[1]|2[0]|2[1][0])", "ROUND7").
streetInRoundabout("(4[1]|2[0]|2[1][0]|2[1][1])", "ROUND7").
streetInRoundabout("(4[1]|2[0]|2[1][0]|2[1][1]|3)", "ROUND7").
roundabout("ROUND8", 12).
streetInRoundabout("(441|444|443[1])", "ROUND8").
streetInRoundabout("(441|444)", "ROUND8").
streetInRoundabout("(441)", "ROUND8").
streetInRoundabout("(442[1])", "ROUND8").
streetInRoundabout("(442[1]|441|444)", "ROUND8").
streetInRoundabout("(442[1]|441)", "ROUND8").
streetInRoundabout("(443[1]|442[1])", "ROUND8").
streetInRoundabout("(443[1])", "ROUND8").
streetInRoundabout("(443[1]|442[1]|441)", "ROUND8").
streetInRoundabout("(444|443[1]|442[1])", "ROUND8").
streetInRoundabout("(444|443[1])", "ROUND8").
streetInRoundabout("(444)", "ROUND8").
roundabout("ROUND9", 12).
streetInRoundabout("(508)", "ROUND9").
streetInRoundabout("(508|511|510)", "ROUND9").
streetInRoundabout("(508|511)", "ROUND9").
streetInRoundabout("(511|510|509)", "ROUND9").
streetInRoundabout("(511|510)", "ROUND9").
streetInRoundabout("(511)", "ROUND9").
streetInRoundabout("(509)", "ROUND9").
streetInRoundabout("(509|508)", "ROUND9").
streetInRoundabout("(509|508|511)", "ROUND9").
streetInRoundabout("(510|509)", "ROUND9").
streetInRoundabout("(510|509|508)", "ROUND9").
streetInRoundabout("(510)", "ROUND9").
roundabout("ROUND10", 39).
streetInRoundabout("(549[1]|550[1]|539[1][0]|539[1][1]|540[0])", "ROUND10").
streetInRoundabout("(549[1]|550[1]|539[1][0])", "ROUND10").
streetInRoundabout("(549[1]|550[1])", "ROUND10").
streetInRoundabout("(549[1]|550[1]|539[1][0]|539[1][1])", "ROUND10").
streetInRoundabout("(549[1])", "ROUND10").
streetInRoundabout("(540[1][0])", "ROUND10").
streetInRoundabout("(540[1][0]|549[1]|550[1]|539[1][0])", "ROUND10").
streetInRoundabout("(540[1][0]|549[1]|550[1])", "ROUND10").
streetInRoundabout("(540[1][0]|549[1]|550[1]|539[1][0]|539[1][1])", "ROUND10").
streetInRoundabout("(540[1][0]|549[1])", "ROUND10").
streetInRoundabout("(539[1][1]|540[0]|540[1][0])", "ROUND10").
streetInRoundabout("(539[1][1]|540[0])", "ROUND10").
streetInRoundabout("(539[1][1]|540[0]|540[1][0]|549[1]|550[1])", "ROUND10").
streetInRoundabout("(539[1][1])", "ROUND10").
streetInRoundabout("(539[1][1]|540[0]|540[1][0]|549[1])", "ROUND10").
streetInRoundabout("(539[1][0]|539[1][1]|540[0]|540[1][0])", "ROUND10").
streetInRoundabout("(539[1][0]|539[1][1]|540[0])", "ROUND10").
streetInRoundabout("(539[1][0])", "ROUND10").
streetInRoundabout("(539[1][0]|539[1][1])", "ROUND10").
streetInRoundabout("(539[1][0]|539[1][1]|540[0]|540[1][0]|549[1])", "ROUND10").
streetInRoundabout("(540[0]|540[1][0])", "ROUND10").
streetInRoundabout("(540[0])", "ROUND10").
streetInRoundabout("(540[0]|540[1][0]|549[1]|550[1]|539[1][0])", "ROUND10").
streetInRoundabout("(540[0]|540[1][0]|549[1]|550[1])", "ROUND10").
streetInRoundabout("(540[0]|540[1][0]|549[1])", "ROUND10").
streetInRoundabout("(550[1]|539[1][0]|539[1][1]|540[0]|540[1][0])", "ROUND10").
streetInRoundabout("(550[1]|539[1][0]|539[1][1]|540[0])", "ROUND10").
streetInRoundabout("(550[1]|539[1][0])", "ROUND10").
streetInRoundabout("(550[1])", "ROUND10").
streetInRoundabout("(550[1]|539[1][0]|539[1][1])", "ROUND10").
roundabout("ROUND11", 16).
streetInRoundabout("(577[1][1]|580|581[0]|581[1][0]|581[1][1]|579.0|577[0])", "ROUND11").
streetInRoundabout("(577[1][1]|580)", "ROUND11").
streetInRoundabout("(577[1][1]|580|581[0])", "ROUND11").
streetInRoundabout("(577[1][1]|580|581[0]|581[1][0])", "ROUND11").
streetInRoundabout("(577[1][1])", "ROUND11").
streetInRoundabout("(577[1][1]|580|581[0]|581[1][0]|581[1][1])", "ROUND11").
streetInRoundabout("(577[1][1]|580|581[0]|581[1][0]|581[1][1]|579.0)", "ROUND11").
streetInRoundabout("(577[1][0])", "ROUND11").
streetInRoundabout("(577[1][0]|577[1][1]|580)", "ROUND11").
streetInRoundabout("(577[1][0]|577[1][1]|580|581[0])", "ROUND11").
streetInRoundabout("(577[1][0]|577[1][1]|580|581[0]|581[1][0])", "ROUND11").
streetInRoundabout("(577[1][0]|577[1][1])", "ROUND11").
streetInRoundabout("(577[1][0]|577[1][1]|580|581[0]|581[1][0]|581[1][1])", "ROUND11").
streetInRoundabout("(577[1][0]|577[1][1]|580|581[0]|581[1][0]|581[1][1]|579.0)", "ROUND11").
streetInRoundabout("(581[0]|581[1][0]|581[1][1]|579.0|577[0]|577[1][0])", "ROUND11").
streetInRoundabout("(581[0]|581[1][0]|581[1][1]|579.0|577[0])", "ROUND11").
streetInRoundabout("(581[0])", "ROUND11").
streetInRoundabout("(581[0]|581[1][0])", "ROUND11").
streetInRoundabout("(581[0]|581[1][0]|581[1][1]|579.0|577[0]|577[1][0]|577[1][1])", "ROUND11").
streetInRoundabout("(581[0]|581[1][0]|581[1][1])", "ROUND11").
streetInRoundabout("(581[0]|581[1][0]|581[1][1]|579.0)", "ROUND11").
streetInRoundabout("(581[1][0]|581[1][1]|579.0|577[0]|577[1][0])", "ROUND11").
streetInRoundabout("(581[1][0]|581[1][1]|579.0|577[0])", "ROUND11").
streetInRoundabout("(581[1][0]|581[1][1]|579.0|577[0]|577[1][0]|577[1][1]|580)", "ROUND11").
streetInRoundabout("(581[1][0])", "ROUND11").
streetInRoundabout("(581[1][0]|581[1][1]|579.0|577[0]|577[1][0]|577[1][1])", "ROUND11").
streetInRoundabout("(581[1][0]|581[1][1])", "ROUND11").
streetInRoundabout("(581[1][0]|581[1][1]|579.0)", "ROUND11").
streetInRoundabout("(581[1][1]|579.0|577[0]|577[1][0])", "ROUND11").
streetInRoundabout("(581[1][1]|579.0|577[0])", "ROUND11").
streetInRoundabout("(581[1][1]|579.0|577[0]|577[1][0]|577[1][1]|580)", "ROUND11").
streetInRoundabout("(581[1][1]|579.0|577[0]|577[1][0]|577[1][1]|580|581[0])", "ROUND11").
streetInRoundabout("(581[1][1]|579.0|577[0]|577[1][0]|577[1][1])", "ROUND11").
streetInRoundabout("(581[1][1])", "ROUND11").
streetInRoundabout("(581[1][1]|579.0)", "ROUND11").
streetInRoundabout("(580|581[0]|581[1][0]|581[1][1]|579.0|577[0]|577[1][0])", "ROUND11").
streetInRoundabout("(580|581[0]|581[1][0]|581[1][1]|579.0|577[0])", "ROUND11").
streetInRoundabout("(580)", "ROUND11").
streetInRoundabout("(580|581[0])", "ROUND11").
streetInRoundabout("(580|581[0]|581[1][0])", "ROUND11").
streetInRoundabout("(580|581[0]|581[1][0]|581[1][1])", "ROUND11").
streetInRoundabout("(580|581[0]|581[1][0]|581[1][1]|579.0)", "ROUND11").
streetInRoundabout("(579.0|577[0]|577[1][0])", "ROUND11").
streetInRoundabout("(579.0|577[0])", "ROUND11").
streetInRoundabout("(579.0|577[0]|577[1][0]|577[1][1]|580)", "ROUND11").
streetInRoundabout("(579.0|577[0]|577[1][0]|577[1][1]|580|581[0])", "ROUND11").
streetInRoundabout("(579.0|577[0]|577[1][0]|577[1][1]|580|581[0]|581[1][0])", "ROUND11").
streetInRoundabout("(579.0|577[0]|577[1][0]|577[1][1])", "ROUND11").
streetInRoundabout("(579.0)", "ROUND11").
streetInRoundabout("(577[0]|577[1][0])", "ROUND11").
streetInRoundabout("(577[0])", "ROUND11").
streetInRoundabout("(577[0]|577[1][0]|577[1][1]|580)", "ROUND11").
streetInRoundabout("(577[0]|577[1][0]|577[1][1]|580|581[0])", "ROUND11").
streetInRoundabout("(577[0]|577[1][0]|577[1][1]|580|581[0]|581[1][0])", "ROUND11").
streetInRoundabout("(577[0]|577[1][0]|577[1][1])", "ROUND11").
streetInRoundabout("(577[0]|577[1][0]|577[1][1]|580|581[0]|581[1][0]|581[1][1])", "ROUND11").
roundabout("ROUND12", 8).
streetInRoundabout("(593)", "ROUND12").
streetInRoundabout("(593|594[1]|767[1])", "ROUND12").
streetInRoundabout("(593|594[1])", "ROUND12").
streetInRoundabout("(594[1]|767[1]|768[1])", "ROUND12").
streetInRoundabout("(594[1]|767[1])", "ROUND12").
streetInRoundabout("(594[1])", "ROUND12").
streetInRoundabout("(768[1])", "ROUND12").
streetInRoundabout("(768[1]|593)", "ROUND12").
streetInRoundabout("(768[1]|593|594[1])", "ROUND12").
streetInRoundabout("(767[1]|768[1])", "ROUND12").
streetInRoundabout("(767[1]|768[1]|593)", "ROUND12").
streetInRoundabout("(767[1])", "ROUND12").
roundabout("ROUND13", 8).
streetInRoundabout("(gneE6|gneE7)", "ROUND13").
streetInRoundabout("(gneE6)", "ROUND13").
streetInRoundabout("(gneE6|gneE7|gneE8|gneE9)", "ROUND13").
streetInRoundabout("(gneE6|gneE7|gneE8)", "ROUND13").
streetInRoundabout("(gneE6|gneE7|gneE8|gneE9|gneE2)", "ROUND13").
streetInRoundabout("(gneE6|gneE7|gneE8|gneE9|gneE2|gneE3)", "ROUND13").
streetInRoundabout("(gneE6|gneE7|gneE8|gneE9|gneE2|gneE3|gneE4)", "ROUND13").
streetInRoundabout("(gneE8|gneE9|gneE2|gneE3|gneE4|gneE5)", "ROUND13").
streetInRoundabout("(gneE8|gneE9|gneE2|gneE3|gneE4|gneE5|gneE6)", "ROUND13").
streetInRoundabout("(gneE8|gneE9)", "ROUND13").
streetInRoundabout("(gneE8)", "ROUND13").
streetInRoundabout("(gneE8|gneE9|gneE2)", "ROUND13").
streetInRoundabout("(gneE8|gneE9|gneE2|gneE3)", "ROUND13").
streetInRoundabout("(gneE8|gneE9|gneE2|gneE3|gneE4)", "ROUND13").
streetInRoundabout("(gneE7|gneE8|gneE9|gneE2|gneE3|gneE4|gneE5)", "ROUND13").
streetInRoundabout("(gneE7)", "ROUND13").
streetInRoundabout("(gneE7|gneE8|gneE9)", "ROUND13").
streetInRoundabout("(gneE7|gneE8)", "ROUND13").
streetInRoundabout("(gneE7|gneE8|gneE9|gneE2)", "ROUND13").
streetInRoundabout("(gneE7|gneE8|gneE9|gneE2|gneE3)", "ROUND13").
streetInRoundabout("(gneE7|gneE8|gneE9|gneE2|gneE3|gneE4)", "ROUND13").
streetInRoundabout("(gneE2|gneE3|gneE4|gneE5)", "ROUND13").
streetInRoundabout("(gneE2|gneE3|gneE4|gneE5|gneE6|gneE7)", "ROUND13").
streetInRoundabout("(gneE2|gneE3|gneE4|gneE5|gneE6)", "ROUND13").
streetInRoundabout("(gneE2|gneE3|gneE4|gneE5|gneE6|gneE7|gneE8)", "ROUND13").
streetInRoundabout("(gneE2)", "ROUND13").
streetInRoundabout("(gneE2|gneE3)", "ROUND13").
streetInRoundabout("(gneE2|gneE3|gneE4)", "ROUND13").
streetInRoundabout("(gneE9|gneE2|gneE3|gneE4|gneE5)", "ROUND13").
streetInRoundabout("(gneE9|gneE2|gneE3|gneE4|gneE5|gneE6|gneE7)", "ROUND13").
streetInRoundabout("(gneE9|gneE2|gneE3|gneE4|gneE5|gneE6)", "ROUND13").
streetInRoundabout("(gneE9)", "ROUND13").
streetInRoundabout("(gneE9|gneE2)", "ROUND13").
streetInRoundabout("(gneE9|gneE2|gneE3)", "ROUND13").
streetInRoundabout("(gneE9|gneE2|gneE3|gneE4)", "ROUND13").
streetInRoundabout("(gneE3|gneE4|gneE5)", "ROUND13").
streetInRoundabout("(gneE3|gneE4|gneE5|gneE6|gneE7)", "ROUND13").
streetInRoundabout("(gneE3|gneE4|gneE5|gneE6)", "ROUND13").
streetInRoundabout("(gneE3|gneE4|gneE5|gneE6|gneE7|gneE8|gneE9)", "ROUND13").
streetInRoundabout("(gneE3|gneE4|gneE5|gneE6|gneE7|gneE8)", "ROUND13").
streetInRoundabout("(gneE3)", "ROUND13").
streetInRoundabout("(gneE3|gneE4)", "ROUND13").
streetInRoundabout("(gneE4|gneE5)", "ROUND13").
streetInRoundabout("(gneE4|gneE5|gneE6|gneE7)", "ROUND13").
streetInRoundabout("(gneE4|gneE5|gneE6)", "ROUND13").
streetInRoundabout("(gneE4|gneE5|gneE6|gneE7|gneE8|gneE9)", "ROUND13").
streetInRoundabout("(gneE4|gneE5|gneE6|gneE7|gneE8)", "ROUND13").
streetInRoundabout("(gneE4|gneE5|gneE6|gneE7|gneE8|gneE9|gneE2)", "ROUND13").
streetInRoundabout("(gneE4)", "ROUND13").
streetInRoundabout("(gneE5)", "ROUND13").
streetInRoundabout("(gneE5|gneE6|gneE7)", "ROUND13").
streetInRoundabout("(gneE5|gneE6)", "ROUND13").
streetInRoundabout("(gneE5|gneE6|gneE7|gneE8|gneE9)", "ROUND13").
streetInRoundabout("(gneE5|gneE6|gneE7|gneE8)", "ROUND13").
streetInRoundabout("(gneE5|gneE6|gneE7|gneE8|gneE9|gneE2)", "ROUND13").
streetInRoundabout("(gneE5|gneE6|gneE7|gneE8|gneE9|gneE2|gneE3)", "ROUND13").
