emissionClass("Audinot_3_152", "electric").
indexStreetOnRoute("131", "R1", 0).
indexStreetOnRoute("65", "R1", 1).
indexStreetOnRoute("57[0]", "R1", 2).
indexStreetOnRoute("57[1]", "R1", 3).
indexStreetOnRoute("62", "R1", 4).
indexStreetOnRoute("159", "R1", 5).
indexStreetOnRoute("42", "R1", 6).
indexStreetOnRoute("39", "R1", 7).
indexStreetOnRoute("35", "R1", 8).
indexStreetOnRoute("38", "R1", 9).
indexStreetOnRoute("15", "R1", 10).
indexStreetOnRoute("14", "R1", 11).
indexStreetOnRoute("131", "R2", 0).
indexStreetOnRoute("65", "R2", 1).
indexStreetOnRoute("57[0]", "R2", 2).
indexStreetOnRoute("57[1]", "R2", 3).
indexStreetOnRoute("62", "R2", 4).
indexStreetOnRoute("159", "R2", 5).
indexStreetOnRoute("42", "R2", 6).
indexStreetOnRoute("39", "R2", 7).
indexStreetOnRoute("35", "R2", 8).
indexStreetOnRoute("38", "R2", 9).
indexStreetOnRoute("33", "R2", 10).
indexStreetOnRoute("10", "R2", 11).
indexStreetOnRoute("131", "R3", 0).
indexStreetOnRoute("65", "R3", 1).
indexStreetOnRoute("57[0]", "R3", 2).
indexStreetOnRoute("57[1]", "R3", 3).
indexStreetOnRoute("62", "R3", 4).
indexStreetOnRoute("159", "R3", 5).
indexStreetOnRoute("42", "R3", 6).
indexStreetOnRoute("39", "R3", 7).
indexStreetOnRoute("35", "R3", 8).
indexStreetOnRoute("38", "R3", 9).
indexStreetOnRoute("50", "R3", 10).
indexStreetOnRoute("19", "R3", 11).
indexStreetOnRoute("103", "R3", 12).
indexStreetOnRoute("14", "R3", 13).
emissionMap("1", "204a[0]", "electric", "MEDIUM", 0).
emissionMap("1", "None", "electric", "MEDIUM", 0).
emissionMap("10", "[13|104]", "electric", "MEDIUM", 0).
emissionMap("10", "None", "electric", "MEDIUM", 0).
emissionMap("103", "14", "electric", "MEDIUM", 0).
emissionMap("103", "16", "electric", "MEDIUM", 0).
emissionMap("103", "49", "electric", "MEDIUM", 0).
emissionMap("103", "None", "electric", "MEDIUM", 0).
emissionMap("104", "16", "electric", "MEDIUM", 0).
emissionMap("104", "24", "electric", "MEDIUM", 0).
emissionMap("104", "49", "electric", "MEDIUM", 0).
emissionMap("104", "None", "electric", "MEDIUM", 0).
emissionMap("109[0]", "109[1][0]+20003", "electric", "MEDIUM", 0).
emissionMap("109[0]", "None", "electric", "MEDIUM", 0).
emissionMap("109[1][0]+20003", "109[1][1]", "electric", "MEDIUM", 0).
emissionMap("109[1][0]+20003", "None", "electric", "MEDIUM", 0).
emissionMap("109[1][1]", "120", "electric", "MEDIUM", 0).
emissionMap("109[1][1]", "[116|46]", "electric", "MEDIUM", 0).
emissionMap("109[1][1]", "None", "electric", "MEDIUM", 0).
emissionMap("11", "72[0]", "electric", "MEDIUM", 0).
emissionMap("11", "84", "electric", "MEDIUM", 0).
emissionMap("11", "86", "electric", "MEDIUM", 0).
emissionMap("11", "None", "electric", "MEDIUM", 0).
emissionMap("113", "118", "electric", "MEDIUM", 0).
emissionMap("113", "209", "electric", "MEDIUM", 0).
emissionMap("113", "None", "electric", "MEDIUM", 0).
emissionMap("114", "None", "electric", "MEDIUM", 0).
emissionMap("116", "46", "electric", "MEDIUM", 0).
emissionMap("116", "None", "electric", "MEDIUM", 0).
emissionMap("117", "209", "electric", "MEDIUM", 0).
emissionMap("117", "None", "electric", "MEDIUM", 0).
emissionMap("118", "119", "electric", "MEDIUM", 0).
emissionMap("118", "65", "electric", "MEDIUM", 0).
emissionMap("118", "None", "electric", "MEDIUM", 0).
emissionMap("119", "[116|46]", "electric", "MEDIUM", 0).
emissionMap("119", "None", "electric", "MEDIUM", 0).
emissionMap("12", "67", "electric", "MEDIUM", 0).
emissionMap("12", "86", "electric", "MEDIUM", 0).
emissionMap("12", "None", "electric", "MEDIUM", 0).
emissionMap("120", "117", "electric", "MEDIUM", 0).
emissionMap("120", "65", "electric", "MEDIUM", 0).
emissionMap("120", "None", "electric", "MEDIUM", 0).
emissionMap("122", "1b", "electric", "MEDIUM", 0).
emissionMap("122", "[3|2]", "electric", "MEDIUM", 0).
emissionMap("122", "None", "electric", "MEDIUM", 0).
emissionMap("124", "None", "electric", "MEDIUM", 0).
emissionMap("127", "(77[1][0])", "electric", "MEDIUM", 0).
emissionMap("127", "(77[1][0]|77ab)", "electric", "MEDIUM", 0).
emissionMap("127", "(77[1][0]|77ab|77bc)", "electric", "MEDIUM", 0).
emissionMap("127", "(77[1][0]|77ab|77bc|77cd|53cd)", "electric", "MEDIUM", 0).
emissionMap("127", "(77[1][0]|77ab|77bc|77cd)", "electric", "MEDIUM", 0).
emissionMap("127", "(77[1][0]|77ab|77bc|77cd|53cd|53[0])", "electric", "MEDIUM", 0).
emissionMap("127", "(77[1][0]|77ab|77bc|77cd|53cd|53[0]|53[1][0])", "electric", "MEDIUM", 0).
emissionMap("127", "None", "electric", "MEDIUM", 0).
emissionMap("13", "104", "electric", "MEDIUM", 0).
emissionMap("13", "None", "electric", "MEDIUM", 0).
emissionMap("131", "117", "electric", "MEDIUM", 0).
emissionMap("131", "119", "electric", "MEDIUM", 0).
emissionMap("131", "65", "electric", "MEDIUM", 0).
emissionMap("131", "None", "electric", "MEDIUM", 0).
emissionMap("133", "31", "electric", "MEDIUM", 0).
emissionMap("133", "None", "electric", "MEDIUM", 0).
emissionMap("134", "[134b|133]", "electric", "MEDIUM", 0).
emissionMap("134", "None", "electric", "MEDIUM", 0).
emissionMap("134b", "133", "electric", "MEDIUM", 0).
emissionMap("134b", "None", "electric", "MEDIUM", 0).
emissionMap("135", "[181|18]", "electric", "MEDIUM", 0).
emissionMap("135", "None", "electric", "MEDIUM", 0).
emissionMap("136", "135", "electric", "MEDIUM", 0).
emissionMap("136", "None", "electric", "MEDIUM", 0).
emissionMap("137", "180", "electric", "MEDIUM", 0).
emissionMap("137", "None", "electric", "MEDIUM", 0).
emissionMap("138", "137", "electric", "MEDIUM", 0).
emissionMap("138", "None", "electric", "MEDIUM", 0).
emissionMap("14", "9", "electric", "MEDIUM", 0).
emissionMap("14", "None", "electric", "MEDIUM", 0).
emissionMap("15", "14", "electric", "MEDIUM", 0).
emissionMap("15", "24", "electric", "MEDIUM", 0).
emissionMap("15", "49", "electric", "MEDIUM", 0).
emissionMap("15", "None", "electric", "MEDIUM", 0).
emissionMap("153", "[87[0]|20001+87[1][0]|87[1][1]]", "electric", "MEDIUM", 0).
emissionMap("153", "None", "electric", "MEDIUM", 0).
emissionMap("159", "42", "electric", "MEDIUM", 0).
emissionMap("159", "None", "electric", "MEDIUM", 0).
emissionMap("16", "37", "electric", "MEDIUM", 0).
emissionMap("16", "None", "electric", "MEDIUM", 0).
emissionMap("160", "61", "electric", "MEDIUM", 0).
emissionMap("160", "None", "electric", "MEDIUM", 0).
emissionMap("161", "122", "electric", "MEDIUM", 0).
emissionMap("161", "194", "electric", "MEDIUM", 0).
emissionMap("161", "None", "electric", "MEDIUM", 0).
emissionMap("165", "166", "electric", "MEDIUM", 0).
emissionMap("165", "31", "electric", "MEDIUM", 0).
emissionMap("165", "[134b|133]", "electric", "MEDIUM", 0).
emissionMap("165", "None", "electric", "MEDIUM", 0).
emissionMap("166", "None", "electric", "MEDIUM", 0).
emissionMap("17", "71", "electric", "MEDIUM", 0).
emissionMap("17", "None", "electric", "MEDIUM", 0).
emissionMap("171", "161", "electric", "MEDIUM", 0).
emissionMap("171", "None", "electric", "MEDIUM", 0).
emissionMap("173", "58[0]", "electric", "MEDIUM", 0).
emissionMap("173", "62", "electric", "MEDIUM", 0).
emissionMap("173", "None", "electric", "MEDIUM", 0).
emissionMap("18", "69", "electric", "MEDIUM", 0).
emissionMap("18", "[17|71]", "electric", "MEDIUM", 0).
emissionMap("18", "None", "electric", "MEDIUM", 0).
emissionMap("180", "[136|135]", "electric", "MEDIUM", 0).
emissionMap("180", "[181|18]", "electric", "MEDIUM", 0).
emissionMap("180", "None", "electric", "MEDIUM", 0).
emissionMap("181", "18", "electric", "MEDIUM", 0).
emissionMap("181", "None", "electric", "MEDIUM", 0).
emissionMap("186", "[109[0]|109[1][0]+20003|109[1][1]]", "electric", "MEDIUM", 0).
emissionMap("186", "None", "electric", "MEDIUM", 0).
emissionMap("188", "[87[0]|20001+87[1][0]|87[1][1]]", "electric", "MEDIUM", 0).
emissionMap("188", "None", "electric", "MEDIUM", 0).
emissionMap("189[0]", "189[1][0]+20000", "electric", "MEDIUM", 0).
emissionMap("189[0]", "None", "electric", "MEDIUM", 0).
emissionMap("189[1][0]+20000", "189[1][1]", "electric", "MEDIUM", 0).
emissionMap("189[1][0]+20000", "None", "electric", "MEDIUM", 0).
emissionMap("189[1][1]", "188", "electric", "MEDIUM", 0).
emissionMap("189[1][1]", "191", "electric", "MEDIUM", 0).
emissionMap("189[1][1]", "None", "electric", "MEDIUM", 0).
emissionMap("19", "103", "electric", "MEDIUM", 0).
emissionMap("19", "[22|59]", "electric", "MEDIUM", 0).
emissionMap("19", "None", "electric", "MEDIUM", 0).
emissionMap("191", "69", "electric", "MEDIUM", 0).
emissionMap("191", "[17|71]", "electric", "MEDIUM", 0).
emissionMap("191", "None", "electric", "MEDIUM", 0).
emissionMap("194", "91", "electric", "MEDIUM", 0).
emissionMap("194", "None", "electric", "MEDIUM", 0).
emissionMap("195", "159", "electric", "MEDIUM", 0).
emissionMap("195", "61", "electric", "MEDIUM", 0).
emissionMap("195", "None", "electric", "MEDIUM", 0).
emissionMap("197", "[109[0]|109[1][0]+20003|109[1][1]]", "electric", "MEDIUM", 0).
emissionMap("197", "None", "electric", "MEDIUM", 0).
emissionMap("1b", "1", "electric", "MEDIUM", 0).
emissionMap("1b", "None", "electric", "MEDIUM", 0).
emissionMap("2", "4", "electric", "MEDIUM", 0).
emissionMap("2", "[202|34]", "electric", "MEDIUM", 0).
emissionMap("2", "None", "electric", "MEDIUM", 0).
emissionMap("20", "219", "electric", "MEDIUM", 0).
emissionMap("20", "None", "electric", "MEDIUM", 0).
emissionMap("200", "60", "electric", "MEDIUM", 0).
emissionMap("200", "None", "electric", "MEDIUM", 0).
emissionMap("20001+87[1][0]", "87[1][1]", "electric", "MEDIUM", 0).
emissionMap("20001+87[1][0]", "None", "electric", "MEDIUM", 0).
emissionMap("20002+89[1][0]", "89[1][1]", "electric", "MEDIUM", 0).
emissionMap("20002+89[1][0]", "None", "electric", "MEDIUM", 0).
emissionMap("201", "201c", "electric", "MEDIUM", 0).
emissionMap("201", "4c", "electric", "MEDIUM", 0).
emissionMap("201", "None", "electric", "MEDIUM", 0).
emissionMap("201c", "204a[0]", "electric", "MEDIUM", 0).
emissionMap("201c", "None", "electric", "MEDIUM", 0).
emissionMap("202", "34", "electric", "MEDIUM", 0).
emissionMap("202", "None", "electric", "MEDIUM", 0).
emissionMap("203[0]", "203[1]", "electric", "MEDIUM", 0).
emissionMap("203[0]", "None", "electric", "MEDIUM", 0).
emissionMap("203[1]", "203[1]b", "electric", "MEDIUM", 0).
emissionMap("203[1]", "None", "electric", "MEDIUM", 0).
emissionMap("203[1]b", "[202|34]", "electric", "MEDIUM", 0).
emissionMap("203[1]b", "None", "electric", "MEDIUM", 0).
emissionMap("204[1][0]", "204[1][1]", "electric", "MEDIUM", 0).
emissionMap("204[1][0]", "None", "electric", "MEDIUM", 0).
emissionMap("204[1][1]", "None", "electric", "MEDIUM", 0).
emissionMap("204a[0]", "124", "electric", "MEDIUM", 0).
emissionMap("204a[0]", "204b[0]", "electric", "MEDIUM", 0).
emissionMap("204a[0]", "None", "electric", "MEDIUM", 0).
emissionMap("204b[0]", "204[1][0]", "electric", "MEDIUM", 0).
emissionMap("204b[0]", "54", "electric", "MEDIUM", 0).
emissionMap("204b[0]", "None", "electric", "MEDIUM", 0).
emissionMap("206", "30", "electric", "MEDIUM", 0).
emissionMap("206", "32", "electric", "MEDIUM", 0).
emissionMap("206", "None", "electric", "MEDIUM", 0).
emissionMap("209", "None", "electric", "MEDIUM", 0).
emissionMap("210", "43[0]", "electric", "MEDIUM", 0).
emissionMap("210", "None", "electric", "MEDIUM", 0).
emissionMap("211", "45", "electric", "MEDIUM", 0).
emissionMap("211", "None", "electric", "MEDIUM", 0).
emissionMap("212", "10", "electric", "MEDIUM", 0).
emissionMap("212", "None", "electric", "MEDIUM", 0).
emissionMap("218", "36", "electric", "MEDIUM", 0).
emissionMap("218", "38", "electric", "MEDIUM", 0).
emissionMap("218", "None", "electric", "MEDIUM", 0).
emissionMap("219", "218", "electric", "MEDIUM", 0).
emissionMap("219", "None", "electric", "MEDIUM", 0).
emissionMap("21a", "21b", "electric", "MEDIUM", 0).
emissionMap("21a", "None", "electric", "MEDIUM", 0).
emissionMap("21b", "103", "electric", "MEDIUM", 0).
emissionMap("21b", "20", "electric", "MEDIUM", 0).
emissionMap("21b", "None", "electric", "MEDIUM", 0).
emissionMap("22", "59", "electric", "MEDIUM", 0).
emissionMap("22", "None", "electric", "MEDIUM", 0).
emissionMap("220", "19", "electric", "MEDIUM", 0).
emissionMap("220", "None", "electric", "MEDIUM", 0).
emissionMap("220b", "218", "electric", "MEDIUM", 0).
emissionMap("220b", "220", "electric", "MEDIUM", 0).
emissionMap("220b", "None", "electric", "MEDIUM", 0).
emissionMap("222", "None", "electric", "MEDIUM", 0).
emissionMap("224[0]", "222", "electric", "MEDIUM", 0).
emissionMap("224[0]", "224[1]", "electric", "MEDIUM", 0).
emissionMap("224[0]", "None", "electric", "MEDIUM", 0).
emissionMap("224[1]", "[136|135]", "electric", "MEDIUM", 0).
emissionMap("224[1]", "[181|18]", "electric", "MEDIUM", 0).
emissionMap("224[1]", "None", "electric", "MEDIUM", 0).
emissionMap("24", "20", "electric", "MEDIUM", 0).
emissionMap("24", "[22|59]", "electric", "MEDIUM", 0).
emissionMap("24", "None", "electric", "MEDIUM", 0).
emissionMap("25", "74", "electric", "MEDIUM", 0).
emissionMap("25", "[68|11]", "electric", "MEDIUM", 0).
emissionMap("25", "[80|127]", "electric", "MEDIUM", 0).
emissionMap("25", "None", "electric", "MEDIUM", 0).
emissionMap("26", "25", "electric", "MEDIUM", 0).
emissionMap("26", "None", "electric", "MEDIUM", 0).
emissionMap("28", "None", "electric", "MEDIUM", 0).
emissionMap("3", "2", "electric", "MEDIUM", 0).
emissionMap("3", "None", "electric", "MEDIUM", 0).
emissionMap("30", "None", "electric", "MEDIUM", 0).
emissionMap("31", "113", "electric", "MEDIUM", 0).
emissionMap("31", "201", "electric", "MEDIUM", 0).
emissionMap("31", "None", "electric", "MEDIUM", 0).
emissionMap("32", "35", "electric", "MEDIUM", 0).
emissionMap("32", "40", "electric", "MEDIUM", 0).
emissionMap("32", "None", "electric", "MEDIUM", 0).
emissionMap("33", "10", "electric", "MEDIUM", 0).
emissionMap("33", "[211|45]", "electric", "MEDIUM", 0).
emissionMap("33", "None", "electric", "MEDIUM", 0).
emissionMap("34", "113", "electric", "MEDIUM", 0).
emissionMap("34", "134", "electric", "MEDIUM", 0).
emissionMap("34", "None", "electric", "MEDIUM", 0).
emissionMap("35", "38", "electric", "MEDIUM", 0).
emissionMap("35", "None", "electric", "MEDIUM", 0).
emissionMap("36", "40", "electric", "MEDIUM", 0).
emissionMap("36", "None", "electric", "MEDIUM", 0).
emissionMap("37", "36", "electric", "MEDIUM", 0).
emissionMap("37", "None", "electric", "MEDIUM", 0).
emissionMap("38", "15", "electric", "MEDIUM", 0).
emissionMap("38", "33", "electric", "MEDIUM", 0).
emissionMap("38", "50", "electric", "MEDIUM", 0).
emissionMap("38", "None", "electric", "MEDIUM", 0).
emissionMap("39", "35", "electric", "MEDIUM", 0).
emissionMap("39", "None", "electric", "MEDIUM", 0).
emissionMap("4", "4c", "electric", "MEDIUM", 0).
emissionMap("4", "None", "electric", "MEDIUM", 0).
emissionMap("40", "153", "electric", "MEDIUM", 0).
emissionMap("40", "41", "electric", "MEDIUM", 0).
emissionMap("40", "93", "electric", "MEDIUM", 0).
emissionMap("40", "None", "electric", "MEDIUM", 0).
emissionMap("41", "160", "electric", "MEDIUM", 0).
emissionMap("41", "None", "electric", "MEDIUM", 0).
emissionMap("42", "153", "electric", "MEDIUM", 0).
emissionMap("42", "39", "electric", "MEDIUM", 0).
emissionMap("42", "None", "electric", "MEDIUM", 0).
emissionMap("43[0]", "118", "electric", "MEDIUM", 0).
emissionMap("43[0]", "43[1]", "electric", "MEDIUM", 0).
emissionMap("43[0]", "None", "electric", "MEDIUM", 0).
emissionMap("43[1]", "134", "electric", "MEDIUM", 0).
emissionMap("43[1]", "201", "electric", "MEDIUM", 0).
emissionMap("43[1]", "None", "electric", "MEDIUM", 0).
emissionMap("44", "36", "electric", "MEDIUM", 0).
emissionMap("44", "38", "electric", "MEDIUM", 0).
emissionMap("44", "None", "electric", "MEDIUM", 0).
emissionMap("45", "206", "electric", "MEDIUM", 0).
emissionMap("45", "44", "electric", "MEDIUM", 0).
emissionMap("45", "None", "electric", "MEDIUM", 0).
emissionMap("46", "113", "electric", "MEDIUM", 0).
emissionMap("46", "134", "electric", "MEDIUM", 0).
emissionMap("46", "201", "electric", "MEDIUM", 0).
emissionMap("46", "None", "electric", "MEDIUM", 0).
emissionMap("48", "160", "electric", "MEDIUM", 0).
emissionMap("48", "42", "electric", "MEDIUM", 0).
emissionMap("48", "None", "electric", "MEDIUM", 0).
emissionMap("49", "None", "electric", "MEDIUM", 0).
emissionMap("4c", "None", "electric", "MEDIUM", 0).
emissionMap("50", "19", "electric", "MEDIUM", 0).
emissionMap("50", "219", "electric", "MEDIUM", 0).
emissionMap("50", "None", "electric", "MEDIUM", 0).
emissionMap("51", "19", "electric", "MEDIUM", 0).
emissionMap("51", "219", "electric", "MEDIUM", 0).
emissionMap("51", "None", "electric", "MEDIUM", 0).
emissionMap("53[0]", "78[1][1]", "electric", "MEDIUM", 0).
emissionMap("53[0]", "(53[1][0]|53[1][1][0]|77[1][0])", "electric", "MEDIUM", 0).
emissionMap("53[0]", "(53[1][0]|53[1][1][0]|77[1][0]|77ab)", "electric", "MEDIUM", 0).
emissionMap("53[0]", "(53[1][0]|53[1][1][0]|77[1][0]|77ab|77bc)", "electric", "MEDIUM", 0).
emissionMap("53[0]", "(53[1][0]|53[1][1][0]|77[1][0]|77ab|77bc|77cd|53cd)", "electric", "MEDIUM", 0).
emissionMap("53[0]", "(53[1][0]|53[1][1][0]|77[1][0]|77ab|77bc|77cd)", "electric", "MEDIUM", 0).
emissionMap("53[0]", "(53[1][0])", "electric", "MEDIUM", 0).
emissionMap("53[0]", "(53[1][0]|53[1][1][0])", "electric", "MEDIUM", 0).
emissionMap("53[0]", "None", "electric", "MEDIUM", 0).
emissionMap("53[1][0]", "79", "electric", "MEDIUM", 0).
emissionMap("53[1][0]", "(53[1][1][0]|77[1][0])", "electric", "MEDIUM", 0).
emissionMap("53[1][0]", "(53[1][1][0]|77[1][0]|77ab)", "electric", "MEDIUM", 0).
emissionMap("53[1][0]", "(53[1][1][0]|77[1][0]|77ab|77bc)", "electric", "MEDIUM", 0).
emissionMap("53[1][0]", "(53[1][1][0]|77[1][0]|77ab|77bc|77cd|53cd)", "electric", "MEDIUM", 0).
emissionMap("53[1][0]", "(53[1][1][0]|77[1][0]|77ab|77bc|77cd)", "electric", "MEDIUM", 0).
emissionMap("53[1][0]", "(53[1][1][0]|77[1][0]|77ab|77bc|77cd|53cd|53[0])", "electric", "MEDIUM", 0).
emissionMap("53[1][0]", "(53[1][1][0])", "electric", "MEDIUM", 0).
emissionMap("53[1][0]", "None", "electric", "MEDIUM", 0).
emissionMap("53[1][1][0]", "(77[1][0])", "electric", "MEDIUM", 0).
emissionMap("53[1][1][0]", "(77[1][0]|77ab)", "electric", "MEDIUM", 0).
emissionMap("53[1][1][0]", "(77[1][0]|77ab|77bc)", "electric", "MEDIUM", 0).
emissionMap("53[1][1][0]", "(77[1][0]|77ab|77bc|77cd|53cd)", "electric", "MEDIUM", 0).
emissionMap("53[1][1][0]", "(77[1][0]|77ab|77bc|77cd)", "electric", "MEDIUM", 0).
emissionMap("53[1][1][0]", "(77[1][0]|77ab|77bc|77cd|53cd|53[0])", "electric", "MEDIUM", 0).
emissionMap("53[1][1][0]", "(77[1][0]|77ab|77bc|77cd|53cd|53[0]|53[1][0])", "electric", "MEDIUM", 0).
emissionMap("53[1][1][0]", "None", "electric", "MEDIUM", 0).
emissionMap("53cd", "82", "electric", "MEDIUM", 0).
emissionMap("53cd", "(53[0]|53[1][0]|53[1][1][0]|77[1][0])", "electric", "MEDIUM", 0).
emissionMap("53cd", "(53[0]|53[1][0]|53[1][1][0]|77[1][0]|77ab)", "electric", "MEDIUM", 0).
emissionMap("53cd", "(53[0]|53[1][0]|53[1][1][0]|77[1][0]|77ab|77bc)", "electric", "MEDIUM", 0).
emissionMap("53cd", "(53[0]|53[1][0]|53[1][1][0]|77[1][0]|77ab|77bc|77cd)", "electric", "MEDIUM", 0).
emissionMap("53cd", "(53[0])", "electric", "MEDIUM", 0).
emissionMap("53cd", "(53[0]|53[1][0])", "electric", "MEDIUM", 0).
emissionMap("53cd", "(53[0]|53[1][0]|53[1][1][0])", "electric", "MEDIUM", 0).
emissionMap("53cd", "None", "electric", "MEDIUM", 0).
emissionMap("54", "None", "electric", "MEDIUM", 0).
emissionMap("56a", "56b", "electric", "MEDIUM", 0).
emissionMap("56a", "m1", "electric", "MEDIUM", 0).
emissionMap("56a", "None", "electric", "MEDIUM", 0).
emissionMap("56b", "(77bc|77cd|53cd|53[0]|53[1][0]|53[1][1][0]|77[1][0])", "electric", "MEDIUM", 0).
emissionMap("56b", "(77bc)", "electric", "MEDIUM", 0).
emissionMap("56b", "(77bc|77cd|53cd)", "electric", "MEDIUM", 0).
emissionMap("56b", "(77bc|77cd)", "electric", "MEDIUM", 0).
emissionMap("56b", "(77bc|77cd|53cd|53[0])", "electric", "MEDIUM", 0).
emissionMap("56b", "(77bc|77cd|53cd|53[0]|53[1][0])", "electric", "MEDIUM", 0).
emissionMap("56b", "(77bc|77cd|53cd|53[0]|53[1][0]|53[1][1][0])", "electric", "MEDIUM", 0).
emissionMap("56b", "None", "electric", "MEDIUM", 0).
emissionMap("57[0]", "57[1]", "electric", "MEDIUM", 0).
emissionMap("57[0]", "None", "electric", "MEDIUM", 0).
emissionMap("57[1]", "62", "electric", "MEDIUM", 0).
emissionMap("57[1]", "None", "electric", "MEDIUM", 0).
emissionMap("58[0]", "58[1]", "electric", "MEDIUM", 0).
emissionMap("58[0]", "None", "electric", "MEDIUM", 0).
emissionMap("58[1]", "197", "electric", "MEDIUM", 0).
emissionMap("58[1]", "66", "electric", "MEDIUM", 0).
emissionMap("58[1]", "[200|60]", "electric", "MEDIUM", 0).
emissionMap("58[1]", "None", "electric", "MEDIUM", 0).
emissionMap("59", "(53cd|53[0]|53[1][0]|53[1][1][0]|77[1][0])", "electric", "MEDIUM", 0).
emissionMap("59", "(53cd|53[0]|53[1][0]|53[1][1][0]|77[1][0]|77ab)", "electric", "MEDIUM", 0).
emissionMap("59", "(53cd|53[0]|53[1][0]|53[1][1][0]|77[1][0]|77ab|77bc)", "electric", "MEDIUM", 0).
emissionMap("59", "(53cd)", "electric", "MEDIUM", 0).
emissionMap("59", "(53cd|53[0])", "electric", "MEDIUM", 0).
emissionMap("59", "(53cd|53[0]|53[1][0])", "electric", "MEDIUM", 0).
emissionMap("59", "(53cd|53[0]|53[1][0]|53[1][1][0])", "electric", "MEDIUM", 0).
emissionMap("59", "None", "electric", "MEDIUM", 0).
emissionMap("60", "None", "electric", "MEDIUM", 0).
emissionMap("61", "58[0]", "electric", "MEDIUM", 0).
emissionMap("61", "None", "electric", "MEDIUM", 0).
emissionMap("62", "159", "electric", "MEDIUM", 0).
emissionMap("62", "None", "electric", "MEDIUM", 0).
emissionMap("65", "197", "electric", "MEDIUM", 0).
emissionMap("65", "57[0]", "electric", "MEDIUM", 0).
emissionMap("65", "[200|60]", "electric", "MEDIUM", 0).
emissionMap("65", "None", "electric", "MEDIUM", 0).
emissionMap("66", "117", "electric", "MEDIUM", 0).
emissionMap("66", "119", "electric", "MEDIUM", 0).
emissionMap("66", "None", "electric", "MEDIUM", 0).
emissionMap("67", "[80|127]", "electric", "MEDIUM", 0).
emissionMap("67", "[26|25]", "electric", "MEDIUM", 0).
emissionMap("67", "None", "electric", "MEDIUM", 0).
emissionMap("68", "11", "electric", "MEDIUM", 0).
emissionMap("68", "None", "electric", "MEDIUM", 0).
emissionMap("69", "161", "electric", "MEDIUM", 0).
emissionMap("69", "None", "electric", "MEDIUM", 0).
emissionMap("71", "67", "electric", "MEDIUM", 0).
emissionMap("71", "84", "electric", "MEDIUM", 0).
emissionMap("71", "86", "electric", "MEDIUM", 0).
emissionMap("71", "None", "electric", "MEDIUM", 0).
emissionMap("72[0]", "72[1]", "electric", "MEDIUM", 0).
emissionMap("72[0]", "None", "electric", "MEDIUM", 0).
emissionMap("72[1]", "69", "electric", "MEDIUM", 0).
emissionMap("72[1]", "None", "electric", "MEDIUM", 0).
emissionMap("74", "72[1]", "electric", "MEDIUM", 0).
emissionMap("74", "None", "electric", "MEDIUM", 0).
emissionMap("75", "51", "electric", "MEDIUM", 0).
emissionMap("75", "None", "electric", "MEDIUM", 0).
emissionMap("77[1][0]", "77[1][1]", "electric", "MEDIUM", 0).
emissionMap("77[1][0]", "(77ab)", "electric", "MEDIUM", 0).
emissionMap("77[1][0]", "(77ab|77bc)", "electric", "MEDIUM", 0).
emissionMap("77[1][0]", "(77ab|77bc|77cd|53cd)", "electric", "MEDIUM", 0).
emissionMap("77[1][0]", "(77ab|77bc|77cd)", "electric", "MEDIUM", 0).
emissionMap("77[1][0]", "(77ab|77bc|77cd|53cd|53[0])", "electric", "MEDIUM", 0).
emissionMap("77[1][0]", "(77ab|77bc|77cd|53cd|53[0]|53[1][0])", "electric", "MEDIUM", 0).
emissionMap("77[1][0]", "(77ab|77bc|77cd|53cd|53[0]|53[1][0]|53[1][1][0])", "electric", "MEDIUM", 0).
emissionMap("77[1][0]", "None", "electric", "MEDIUM", 0).
emissionMap("77[1][1]", "None", "electric", "MEDIUM", 0).
emissionMap("77ab", "(77bc|77cd|53cd|53[0]|53[1][0]|53[1][1][0]|77[1][0])", "electric", "MEDIUM", 0).
emissionMap("77ab", "(77bc)", "electric", "MEDIUM", 0).
emissionMap("77ab", "(77bc|77cd|53cd)", "electric", "MEDIUM", 0).
emissionMap("77ab", "(77bc|77cd)", "electric", "MEDIUM", 0).
emissionMap("77ab", "(77bc|77cd|53cd|53[0])", "electric", "MEDIUM", 0).
emissionMap("77ab", "(77bc|77cd|53cd|53[0]|53[1][0])", "electric", "MEDIUM", 0).
emissionMap("77ab", "(77bc|77cd|53cd|53[0]|53[1][0]|53[1][1][0])", "electric", "MEDIUM", 0).
emissionMap("77ab", "None", "electric", "MEDIUM", 0).
emissionMap("77bc", "21a", "electric", "MEDIUM", 0).
emissionMap("77bc", "(77cd|53cd|53[0]|53[1][0]|53[1][1][0]|77[1][0])", "electric", "MEDIUM", 0).
emissionMap("77bc", "(77cd|53cd|53[0]|53[1][0]|53[1][1][0]|77[1][0]|77ab)", "electric", "MEDIUM", 0).
emissionMap("77bc", "(77cd|53cd)", "electric", "MEDIUM", 0).
emissionMap("77bc", "(77cd)", "electric", "MEDIUM", 0).
emissionMap("77bc", "(77cd|53cd|53[0])", "electric", "MEDIUM", 0).
emissionMap("77bc", "(77cd|53cd|53[0]|53[1][0])", "electric", "MEDIUM", 0).
emissionMap("77bc", "(77cd|53cd|53[0]|53[1][0]|53[1][1][0])", "electric", "MEDIUM", 0).
emissionMap("77bc", "None", "electric", "MEDIUM", 0).
emissionMap("77cd", "(53cd|53[0]|53[1][0]|53[1][1][0]|77[1][0])", "electric", "MEDIUM", 0).
emissionMap("77cd", "(53cd|53[0]|53[1][0]|53[1][1][0]|77[1][0]|77ab)", "electric", "MEDIUM", 0).
emissionMap("77cd", "(53cd|53[0]|53[1][0]|53[1][1][0]|77[1][0]|77ab|77bc)", "electric", "MEDIUM", 0).
emissionMap("77cd", "(53cd)", "electric", "MEDIUM", 0).
emissionMap("77cd", "(53cd|53[0])", "electric", "MEDIUM", 0).
emissionMap("77cd", "(53cd|53[0]|53[1][0])", "electric", "MEDIUM", 0).
emissionMap("77cd", "(53cd|53[0]|53[1][0]|53[1][1][0])", "electric", "MEDIUM", 0).
emissionMap("77cd", "None", "electric", "MEDIUM", 0).
emissionMap("78[0]", "56a", "electric", "MEDIUM", 0).
emissionMap("78[0]", "None", "electric", "MEDIUM", 0).
emissionMap("78[1][1]", "75", "electric", "MEDIUM", 0).
emissionMap("78[1][1]", "[189[0]|189[1][0]+20000|189[1][1]]", "electric", "MEDIUM", 0).
emissionMap("78[1][1]", "None", "electric", "MEDIUM", 0).
emissionMap("79", "74", "electric", "MEDIUM", 0).
emissionMap("79", "[68|11]", "electric", "MEDIUM", 0).
emissionMap("79", "[26|25]", "electric", "MEDIUM", 0).
emissionMap("79", "None", "electric", "MEDIUM", 0).
emissionMap("8", "9", "electric", "MEDIUM", 0).
emissionMap("8", "[13|104]", "electric", "MEDIUM", 0).
emissionMap("8", "None", "electric", "MEDIUM", 0).
emissionMap("80", "127", "electric", "MEDIUM", 0).
emissionMap("80", "None", "electric", "MEDIUM", 0).
emissionMap("82", "51", "electric", "MEDIUM", 0).
emissionMap("82", "None", "electric", "MEDIUM", 0).
emissionMap("83", "12", "electric", "MEDIUM", 0).
emissionMap("83", "None", "electric", "MEDIUM", 0).
emissionMap("84", "180", "electric", "MEDIUM", 0).
emissionMap("84", "[138|137]", "electric", "MEDIUM", 0).
emissionMap("84", "None", "electric", "MEDIUM", 0).
emissionMap("85", "67", "electric", "MEDIUM", 0).
emissionMap("85", "72[0]", "electric", "MEDIUM", 0).
emissionMap("85", "84", "electric", "MEDIUM", 0).
emissionMap("85", "None", "electric", "MEDIUM", 0).
emissionMap("86", "None", "electric", "MEDIUM", 0).
emissionMap("87[0]", "20001+87[1][0]", "electric", "MEDIUM", 0).
emissionMap("87[0]", "None", "electric", "MEDIUM", 0).
emissionMap("87[1][1]", "97", "electric", "MEDIUM", 0).
emissionMap("87[1][1]", "m90", "electric", "MEDIUM", 0).
emissionMap("87[1][1]", "None", "electric", "MEDIUM", 0).
emissionMap("89[0]", "20002+89[1][0]", "electric", "MEDIUM", 0).
emissionMap("89[0]", "None", "electric", "MEDIUM", 0).
emissionMap("89[1][1]", "91", "electric", "MEDIUM", 0).
emissionMap("89[1][1]", "None", "electric", "MEDIUM", 0).
emissionMap("9", "[211|45]", "electric", "MEDIUM", 0).
emissionMap("9", "None", "electric", "MEDIUM", 0).
emissionMap("91", "173", "electric", "MEDIUM", 0).
emissionMap("91", "186", "electric", "MEDIUM", 0).
emissionMap("91", "None", "electric", "MEDIUM", 0).
emissionMap("93", "28", "electric", "MEDIUM", 0).
emissionMap("93", "48", "electric", "MEDIUM", 0).
emissionMap("93", "None", "electric", "MEDIUM", 0).
emissionMap("97", "160", "electric", "MEDIUM", 0).
emissionMap("97", "42", "electric", "MEDIUM", 0).
emissionMap("97", "None", "electric", "MEDIUM", 0).
emissionMap("m1", "21b", "electric", "MEDIUM", 0).
emissionMap("m1", "None", "electric", "MEDIUM", 0).
emissionMap("m2", "54", "electric", "MEDIUM", 0).
emissionMap("m2", "None", "electric", "MEDIUM", 0).
emissionMap("m90", "171", "electric", "MEDIUM", 0).
emissionMap("m90", "[89[0]|20002+89[1][0]|89[1][1]]", "electric", "MEDIUM", 0).
emissionMap("m90", "None", "electric", "MEDIUM", 0).
emissionMap("[13|104]", "16", "electric", "MEDIUM", 0).
emissionMap("[13|104]", "24", "electric", "MEDIUM", 0).
emissionMap("[13|104]", "49", "electric", "MEDIUM", 0).
emissionMap("[13|104]", "None", "electric", "MEDIUM", 0).
emissionMap("[109[0]|109[1][0]+20003|109[1][1]]", "120", "electric", "MEDIUM", 0).
emissionMap("[109[0]|109[1][0]+20003|109[1][1]]", "[116|46]", "electric", "MEDIUM", 0).
emissionMap("[109[0]|109[1][0]+20003|109[1][1]]", "None", "electric", "MEDIUM", 0).
emissionMap("[68|11]", "72[0]", "electric", "MEDIUM", 0).
emissionMap("[68|11]", "84", "electric", "MEDIUM", 0).
emissionMap("[68|11]", "86", "electric", "MEDIUM", 0).
emissionMap("[68|11]", "None", "electric", "MEDIUM", 0).
emissionMap("[116|46]", "113", "electric", "MEDIUM", 0).
emissionMap("[116|46]", "134", "electric", "MEDIUM", 0).
emissionMap("[116|46]", "201", "electric", "MEDIUM", 0).
emissionMap("[116|46]", "None", "electric", "MEDIUM", 0).
emissionMap("[83|12]", "67", "electric", "MEDIUM", 0).
emissionMap("[83|12]", "86", "electric", "MEDIUM", 0).
emissionMap("[83|12]", "None", "electric", "MEDIUM", 0).
emissionMap("[80|127]", "(77[1][0])", "electric", "MEDIUM", 0).
emissionMap("[80|127]", "(77[1][0]|77ab)", "electric", "MEDIUM", 0).
emissionMap("[80|127]", "(77[1][0]|77ab|77bc)", "electric", "MEDIUM", 0).
emissionMap("[80|127]", "(77[1][0]|77ab|77bc|77cd|53cd)", "electric", "MEDIUM", 0).
emissionMap("[80|127]", "(77[1][0]|77ab|77bc|77cd)", "electric", "MEDIUM", 0).
emissionMap("[80|127]", "(77[1][0]|77ab|77bc|77cd|53cd|53[0])", "electric", "MEDIUM", 0).
emissionMap("[80|127]", "(77[1][0]|77ab|77bc|77cd|53cd|53[0]|53[1][0])", "electric", "MEDIUM", 0).
emissionMap("[80|127]", "None", "electric", "MEDIUM", 0).
emissionMap("[134b|133]", "31", "electric", "MEDIUM", 0).
emissionMap("[134b|133]", "None", "electric", "MEDIUM", 0).
emissionMap("[136|135]", "[181|18]", "electric", "MEDIUM", 0).
emissionMap("[136|135]", "None", "electric", "MEDIUM", 0).
emissionMap("[138|137]", "180", "electric", "MEDIUM", 0).
emissionMap("[138|137]", "None", "electric", "MEDIUM", 0).
emissionMap("[17|71]", "67", "electric", "MEDIUM", 0).
emissionMap("[17|71]", "84", "electric", "MEDIUM", 0).
emissionMap("[17|71]", "86", "electric", "MEDIUM", 0).
emissionMap("[17|71]", "None", "electric", "MEDIUM", 0).
emissionMap("[181|18]", "69", "electric", "MEDIUM", 0).
emissionMap("[181|18]", "[17|71]", "electric", "MEDIUM", 0).
emissionMap("[181|18]", "None", "electric", "MEDIUM", 0).
emissionMap("[189[0]|189[1][0]+20000|189[1][1]]", "188", "electric", "MEDIUM", 0).
emissionMap("[189[0]|189[1][0]+20000|189[1][1]]", "191", "electric", "MEDIUM", 0).
emissionMap("[189[0]|189[1][0]+20000|189[1][1]]", "None", "electric", "MEDIUM", 0).
emissionMap("[3|2]", "4", "electric", "MEDIUM", 0).
emissionMap("[3|2]", "[202|34]", "electric", "MEDIUM", 0).
emissionMap("[3|2]", "None", "electric", "MEDIUM", 0).
emissionMap("[200|60]", "None", "electric", "MEDIUM", 0).
emissionMap("[87[0]|20001+87[1][0]|87[1][1]]", "97", "electric", "MEDIUM", 0).
emissionMap("[87[0]|20001+87[1][0]|87[1][1]]", "m90", "electric", "MEDIUM", 0).
emissionMap("[87[0]|20001+87[1][0]|87[1][1]]", "None", "electric", "MEDIUM", 0).
emissionMap("[89[0]|20002+89[1][0]|89[1][1]]", "91", "electric", "MEDIUM", 0).
emissionMap("[89[0]|20002+89[1][0]|89[1][1]]", "None", "electric", "MEDIUM", 0).
emissionMap("[202|34]", "113", "electric", "MEDIUM", 0).
emissionMap("[202|34]", "134", "electric", "MEDIUM", 0).
emissionMap("[202|34]", "None", "electric", "MEDIUM", 0).
emissionMap("[210|43[0]]", "118", "electric", "MEDIUM", 0).
emissionMap("[210|43[0]]", "43[1]", "electric", "MEDIUM", 0).
emissionMap("[210|43[0]]", "None", "electric", "MEDIUM", 0).
emissionMap("[211|45]", "206", "electric", "MEDIUM", 0).
emissionMap("[211|45]", "44", "electric", "MEDIUM", 0).
emissionMap("[211|45]", "None", "electric", "MEDIUM", 0).
emissionMap("[22|59]", "(53cd|53[0]|53[1][0]|53[1][1][0]|77[1][0])", "electric", "MEDIUM", 0).
emissionMap("[22|59]", "(53cd|53[0]|53[1][0]|53[1][1][0]|77[1][0]|77ab)", "electric", "MEDIUM", 0).
emissionMap("[22|59]", "(53cd|53[0]|53[1][0]|53[1][1][0]|77[1][0]|77ab|77bc)", "electric", "MEDIUM", 0).
emissionMap("[22|59]", "(53cd)", "electric", "MEDIUM", 0).
emissionMap("[22|59]", "(53cd|53[0])", "electric", "MEDIUM", 0).
emissionMap("[22|59]", "(53cd|53[0]|53[1][0])", "electric", "MEDIUM", 0).
emissionMap("[22|59]", "(53cd|53[0]|53[1][0]|53[1][1][0])", "electric", "MEDIUM", 0).
emissionMap("[22|59]", "None", "electric", "MEDIUM", 0).
emissionMap("[26|25]", "74", "electric", "MEDIUM", 0).
emissionMap("[26|25]", "[68|11]", "electric", "MEDIUM", 0).
emissionMap("[26|25]", "[80|127]", "electric", "MEDIUM", 0).
emissionMap("[26|25]", "None", "electric", "MEDIUM", 0).
emissionMap("[78[0]|56a]", "56b", "electric", "MEDIUM", 0).
emissionMap("[78[0]|56a]", "m1", "electric", "MEDIUM", 0).
emissionMap("[78[0]|56a]", "None", "electric", "MEDIUM", 0).
emissionMap("(77ab)", "(77bc|77cd|53cd|53[0]|53[1][0]|53[1][1][0]|77[1][0])", "electric", "MEDIUM", 0).
emissionMap("(77ab)", "(77bc)", "electric", "MEDIUM", 0).
emissionMap("(77ab)", "(77bc|77cd|53cd)", "electric", "MEDIUM", 0).
emissionMap("(77ab)", "(77bc|77cd)", "electric", "MEDIUM", 0).
emissionMap("(77ab)", "(77bc|77cd|53cd|53[0])", "electric", "MEDIUM", 0).
emissionMap("(77ab)", "(77bc|77cd|53cd|53[0]|53[1][0])", "electric", "MEDIUM", 0).
emissionMap("(77ab)", "(77bc|77cd|53cd|53[0]|53[1][0]|53[1][1][0])", "electric", "MEDIUM", 0).
emissionMap("(77ab)", "None", "electric", "MEDIUM", 0).
emissionMap("(77ab|77bc)", "21a", "electric", "MEDIUM", 0).
emissionMap("(77ab|77bc)", "(77cd|53cd|53[0]|53[1][0]|53[1][1][0]|77[1][0])", "electric", "MEDIUM", 0).
emissionMap("(77ab|77bc)", "(77cd|53cd)", "electric", "MEDIUM", 0).
emissionMap("(77ab|77bc)", "(77cd)", "electric", "MEDIUM", 0).
emissionMap("(77ab|77bc)", "(77cd|53cd|53[0])", "electric", "MEDIUM", 0).
emissionMap("(77ab|77bc)", "(77cd|53cd|53[0]|53[1][0])", "electric", "MEDIUM", 0).
emissionMap("(77ab|77bc)", "(77cd|53cd|53[0]|53[1][0]|53[1][1][0])", "electric", "MEDIUM", 0).
emissionMap("(77ab|77bc)", "None", "electric", "MEDIUM", 0).
emissionMap("(77ab|77bc|77cd|53cd)", "82", "electric", "MEDIUM", 0).
emissionMap("(77ab|77bc|77cd|53cd)", "(53[0]|53[1][0]|53[1][1][0]|77[1][0])", "electric", "MEDIUM", 0).
emissionMap("(77ab|77bc|77cd|53cd)", "(53[0])", "electric", "MEDIUM", 0).
emissionMap("(77ab|77bc|77cd|53cd)", "(53[0]|53[1][0])", "electric", "MEDIUM", 0).
emissionMap("(77ab|77bc|77cd|53cd)", "(53[0]|53[1][0]|53[1][1][0])", "electric", "MEDIUM", 0).
emissionMap("(77ab|77bc|77cd|53cd)", "None", "electric", "MEDIUM", 0).
emissionMap("(77ab|77bc|77cd)", "(53cd|53[0]|53[1][0]|53[1][1][0]|77[1][0])", "electric", "MEDIUM", 0).
emissionMap("(77ab|77bc|77cd)", "(53cd)", "electric", "MEDIUM", 0).
emissionMap("(77ab|77bc|77cd)", "(53cd|53[0])", "electric", "MEDIUM", 0).
emissionMap("(77ab|77bc|77cd)", "(53cd|53[0]|53[1][0])", "electric", "MEDIUM", 0).
emissionMap("(77ab|77bc|77cd)", "(53cd|53[0]|53[1][0]|53[1][1][0])", "electric", "MEDIUM", 0).
emissionMap("(77ab|77bc|77cd)", "None", "electric", "MEDIUM", 0).
emissionMap("(77ab|77bc|77cd|53cd|53[0])", "78[1][1]", "electric", "MEDIUM", 0).
emissionMap("(77ab|77bc|77cd|53cd|53[0])", "(53[1][0]|53[1][1][0]|77[1][0])", "electric", "MEDIUM", 0).
emissionMap("(77ab|77bc|77cd|53cd|53[0])", "(53[1][0])", "electric", "MEDIUM", 0).
emissionMap("(77ab|77bc|77cd|53cd|53[0])", "(53[1][0]|53[1][1][0])", "electric", "MEDIUM", 0).
emissionMap("(77ab|77bc|77cd|53cd|53[0])", "None", "electric", "MEDIUM", 0).
emissionMap("(77ab|77bc|77cd|53cd|53[0]|53[1][0])", "79", "electric", "MEDIUM", 0).
emissionMap("(77ab|77bc|77cd|53cd|53[0]|53[1][0])", "(53[1][1][0]|77[1][0])", "electric", "MEDIUM", 0).
emissionMap("(77ab|77bc|77cd|53cd|53[0]|53[1][0])", "(53[1][1][0])", "electric", "MEDIUM", 0).
emissionMap("(77ab|77bc|77cd|53cd|53[0]|53[1][0])", "None", "electric", "MEDIUM", 0).
emissionMap("(77ab|77bc|77cd|53cd|53[0]|53[1][0]|53[1][1][0])", "(77[1][0])", "electric", "MEDIUM", 0).
emissionMap("(77ab|77bc|77cd|53cd|53[0]|53[1][0]|53[1][1][0])", "None", "electric", "MEDIUM", 0).
emissionMap("(77bc|77cd|53cd|53[0]|53[1][0]|53[1][1][0]|77[1][0])", "77[1][1]", "electric", "MEDIUM", 0).
emissionMap("(77bc|77cd|53cd|53[0]|53[1][0]|53[1][1][0]|77[1][0])", "(77ab)", "electric", "MEDIUM", 0).
emissionMap("(77bc|77cd|53cd|53[0]|53[1][0]|53[1][1][0]|77[1][0])", "None", "electric", "MEDIUM", 0).
emissionMap("(77bc)", "21a", "electric", "MEDIUM", 0).
emissionMap("(77bc)", "(77cd|53cd|53[0]|53[1][0]|53[1][1][0]|77[1][0])", "electric", "MEDIUM", 0).
emissionMap("(77bc)", "(77cd|53cd|53[0]|53[1][0]|53[1][1][0]|77[1][0]|77ab)", "electric", "MEDIUM", 0).
emissionMap("(77bc)", "(77cd|53cd)", "electric", "MEDIUM", 0).
emissionMap("(77bc)", "(77cd)", "electric", "MEDIUM", 0).
emissionMap("(77bc)", "(77cd|53cd|53[0])", "electric", "MEDIUM", 0).
emissionMap("(77bc)", "(77cd|53cd|53[0]|53[1][0])", "electric", "MEDIUM", 0).
emissionMap("(77bc)", "(77cd|53cd|53[0]|53[1][0]|53[1][1][0])", "electric", "MEDIUM", 0).
emissionMap("(77bc)", "None", "electric", "MEDIUM", 0).
emissionMap("(77bc|77cd|53cd)", "82", "electric", "MEDIUM", 0).
emissionMap("(77bc|77cd|53cd)", "(53[0]|53[1][0]|53[1][1][0]|77[1][0])", "electric", "MEDIUM", 0).
emissionMap("(77bc|77cd|53cd)", "(53[0]|53[1][0]|53[1][1][0]|77[1][0]|77ab)", "electric", "MEDIUM", 0).
emissionMap("(77bc|77cd|53cd)", "(53[0])", "electric", "MEDIUM", 0).
emissionMap("(77bc|77cd|53cd)", "(53[0]|53[1][0])", "electric", "MEDIUM", 0).
emissionMap("(77bc|77cd|53cd)", "(53[0]|53[1][0]|53[1][1][0])", "electric", "MEDIUM", 0).
emissionMap("(77bc|77cd|53cd)", "None", "electric", "MEDIUM", 0).
emissionMap("(77bc|77cd)", "(53cd|53[0]|53[1][0]|53[1][1][0]|77[1][0])", "electric", "MEDIUM", 0).
emissionMap("(77bc|77cd)", "(53cd|53[0]|53[1][0]|53[1][1][0]|77[1][0]|77ab)", "electric", "MEDIUM", 0).
emissionMap("(77bc|77cd)", "(53cd)", "electric", "MEDIUM", 0).
emissionMap("(77bc|77cd)", "(53cd|53[0])", "electric", "MEDIUM", 0).
emissionMap("(77bc|77cd)", "(53cd|53[0]|53[1][0])", "electric", "MEDIUM", 0).
emissionMap("(77bc|77cd)", "(53cd|53[0]|53[1][0]|53[1][1][0])", "electric", "MEDIUM", 0).
emissionMap("(77bc|77cd)", "None", "electric", "MEDIUM", 0).
emissionMap("(77bc|77cd|53cd|53[0])", "78[1][1]", "electric", "MEDIUM", 0).
emissionMap("(77bc|77cd|53cd|53[0])", "(53[1][0]|53[1][1][0]|77[1][0])", "electric", "MEDIUM", 0).
emissionMap("(77bc|77cd|53cd|53[0])", "(53[1][0]|53[1][1][0]|77[1][0]|77ab)", "electric", "MEDIUM", 0).
emissionMap("(77bc|77cd|53cd|53[0])", "(53[1][0])", "electric", "MEDIUM", 0).
emissionMap("(77bc|77cd|53cd|53[0])", "(53[1][0]|53[1][1][0])", "electric", "MEDIUM", 0).
emissionMap("(77bc|77cd|53cd|53[0])", "None", "electric", "MEDIUM", 0).
emissionMap("(77bc|77cd|53cd|53[0]|53[1][0])", "79", "electric", "MEDIUM", 0).
emissionMap("(77bc|77cd|53cd|53[0]|53[1][0])", "(53[1][1][0]|77[1][0])", "electric", "MEDIUM", 0).
emissionMap("(77bc|77cd|53cd|53[0]|53[1][0])", "(53[1][1][0]|77[1][0]|77ab)", "electric", "MEDIUM", 0).
emissionMap("(77bc|77cd|53cd|53[0]|53[1][0])", "(53[1][1][0])", "electric", "MEDIUM", 0).
emissionMap("(77bc|77cd|53cd|53[0]|53[1][0])", "None", "electric", "MEDIUM", 0).
emissionMap("(77bc|77cd|53cd|53[0]|53[1][0]|53[1][1][0])", "(77[1][0])", "electric", "MEDIUM", 0).
emissionMap("(77bc|77cd|53cd|53[0]|53[1][0]|53[1][1][0])", "(77[1][0]|77ab)", "electric", "MEDIUM", 0).
emissionMap("(77bc|77cd|53cd|53[0]|53[1][0]|53[1][1][0])", "None", "electric", "MEDIUM", 0).
emissionMap("(77cd|53cd|53[0]|53[1][0]|53[1][1][0]|77[1][0])", "77[1][1]", "electric", "MEDIUM", 0).
emissionMap("(77cd|53cd|53[0]|53[1][0]|53[1][1][0]|77[1][0])", "(77ab)", "electric", "MEDIUM", 0).
emissionMap("(77cd|53cd|53[0]|53[1][0]|53[1][1][0]|77[1][0])", "(77ab|77bc)", "electric", "MEDIUM", 0).
emissionMap("(77cd|53cd|53[0]|53[1][0]|53[1][1][0]|77[1][0])", "None", "electric", "MEDIUM", 0).
emissionMap("(77cd|53cd|53[0]|53[1][0]|53[1][1][0]|77[1][0]|77ab)", "(77bc)", "electric", "MEDIUM", 0).
emissionMap("(77cd|53cd|53[0]|53[1][0]|53[1][1][0]|77[1][0]|77ab)", "None", "electric", "MEDIUM", 0).
emissionMap("(77cd|53cd)", "82", "electric", "MEDIUM", 0).
emissionMap("(77cd|53cd)", "(53[0]|53[1][0]|53[1][1][0]|77[1][0])", "electric", "MEDIUM", 0).
emissionMap("(77cd|53cd)", "(53[0]|53[1][0]|53[1][1][0]|77[1][0]|77ab)", "electric", "MEDIUM", 0).
emissionMap("(77cd|53cd)", "(53[0]|53[1][0]|53[1][1][0]|77[1][0]|77ab|77bc)", "electric", "MEDIUM", 0).
emissionMap("(77cd|53cd)", "(53[0])", "electric", "MEDIUM", 0).
emissionMap("(77cd|53cd)", "(53[0]|53[1][0])", "electric", "MEDIUM", 0).
emissionMap("(77cd|53cd)", "(53[0]|53[1][0]|53[1][1][0])", "electric", "MEDIUM", 0).
emissionMap("(77cd|53cd)", "None", "electric", "MEDIUM", 0).
emissionMap("(77cd)", "(53cd|53[0]|53[1][0]|53[1][1][0]|77[1][0])", "electric", "MEDIUM", 0).
emissionMap("(77cd)", "(53cd|53[0]|53[1][0]|53[1][1][0]|77[1][0]|77ab)", "electric", "MEDIUM", 0).
emissionMap("(77cd)", "(53cd|53[0]|53[1][0]|53[1][1][0]|77[1][0]|77ab|77bc)", "electric", "MEDIUM", 0).
emissionMap("(77cd)", "(53cd)", "electric", "MEDIUM", 0).
emissionMap("(77cd)", "(53cd|53[0])", "electric", "MEDIUM", 0).
emissionMap("(77cd)", "(53cd|53[0]|53[1][0])", "electric", "MEDIUM", 0).
emissionMap("(77cd)", "(53cd|53[0]|53[1][0]|53[1][1][0])", "electric", "MEDIUM", 0).
emissionMap("(77cd)", "None", "electric", "MEDIUM", 0).
emissionMap("(77cd|53cd|53[0])", "78[1][1]", "electric", "MEDIUM", 0).
emissionMap("(77cd|53cd|53[0])", "(53[1][0]|53[1][1][0]|77[1][0])", "electric", "MEDIUM", 0).
emissionMap("(77cd|53cd|53[0])", "(53[1][0]|53[1][1][0]|77[1][0]|77ab)", "electric", "MEDIUM", 0).
emissionMap("(77cd|53cd|53[0])", "(53[1][0]|53[1][1][0]|77[1][0]|77ab|77bc)", "electric", "MEDIUM", 0).
emissionMap("(77cd|53cd|53[0])", "(53[1][0])", "electric", "MEDIUM", 0).
emissionMap("(77cd|53cd|53[0])", "(53[1][0]|53[1][1][0])", "electric", "MEDIUM", 0).
emissionMap("(77cd|53cd|53[0])", "None", "electric", "MEDIUM", 0).
emissionMap("(77cd|53cd|53[0]|53[1][0])", "79", "electric", "MEDIUM", 0).
emissionMap("(77cd|53cd|53[0]|53[1][0])", "(53[1][1][0]|77[1][0])", "electric", "MEDIUM", 0).
emissionMap("(77cd|53cd|53[0]|53[1][0])", "(53[1][1][0]|77[1][0]|77ab)", "electric", "MEDIUM", 0).
emissionMap("(77cd|53cd|53[0]|53[1][0])", "(53[1][1][0]|77[1][0]|77ab|77bc)", "electric", "MEDIUM", 0).
emissionMap("(77cd|53cd|53[0]|53[1][0])", "(53[1][1][0])", "electric", "MEDIUM", 0).
emissionMap("(77cd|53cd|53[0]|53[1][0])", "None", "electric", "MEDIUM", 0).
emissionMap("(77cd|53cd|53[0]|53[1][0]|53[1][1][0])", "(77[1][0])", "electric", "MEDIUM", 0).
emissionMap("(77cd|53cd|53[0]|53[1][0]|53[1][1][0])", "(77[1][0]|77ab)", "electric", "MEDIUM", 0).
emissionMap("(77cd|53cd|53[0]|53[1][0]|53[1][1][0])", "(77[1][0]|77ab|77bc)", "electric", "MEDIUM", 0).
emissionMap("(77cd|53cd|53[0]|53[1][0]|53[1][1][0])", "None", "electric", "MEDIUM", 0).
emissionMap("(53[0]|53[1][0]|53[1][1][0]|77[1][0])", "77[1][1]", "electric", "MEDIUM", 0).
emissionMap("(53[0]|53[1][0]|53[1][1][0]|77[1][0])", "(77ab)", "electric", "MEDIUM", 0).
emissionMap("(53[0]|53[1][0]|53[1][1][0]|77[1][0])", "(77ab|77bc)", "electric", "MEDIUM", 0).
emissionMap("(53[0]|53[1][0]|53[1][1][0]|77[1][0])", "(77ab|77bc|77cd|53cd)", "electric", "MEDIUM", 0).
emissionMap("(53[0]|53[1][0]|53[1][1][0]|77[1][0])", "(77ab|77bc|77cd)", "electric", "MEDIUM", 0).
emissionMap("(53[0]|53[1][0]|53[1][1][0]|77[1][0])", "None", "electric", "MEDIUM", 0).
emissionMap("(53[0]|53[1][0]|53[1][1][0]|77[1][0]|77ab)", "(77bc)", "electric", "MEDIUM", 0).
emissionMap("(53[0]|53[1][0]|53[1][1][0]|77[1][0]|77ab)", "(77bc|77cd|53cd)", "electric", "MEDIUM", 0).
emissionMap("(53[0]|53[1][0]|53[1][1][0]|77[1][0]|77ab)", "(77bc|77cd)", "electric", "MEDIUM", 0).
emissionMap("(53[0]|53[1][0]|53[1][1][0]|77[1][0]|77ab)", "None", "electric", "MEDIUM", 0).
emissionMap("(53[0]|53[1][0]|53[1][1][0]|77[1][0]|77ab|77bc)", "21a", "electric", "MEDIUM", 0).
emissionMap("(53[0]|53[1][0]|53[1][1][0]|77[1][0]|77ab|77bc)", "(77cd|53cd)", "electric", "MEDIUM", 0).
emissionMap("(53[0]|53[1][0]|53[1][1][0]|77[1][0]|77ab|77bc)", "(77cd)", "electric", "MEDIUM", 0).
emissionMap("(53[0]|53[1][0]|53[1][1][0]|77[1][0]|77ab|77bc)", "None", "electric", "MEDIUM", 0).
emissionMap("(53[0]|53[1][0]|53[1][1][0]|77[1][0]|77ab|77bc|77cd)", "(53cd)", "electric", "MEDIUM", 0).
emissionMap("(53[0]|53[1][0]|53[1][1][0]|77[1][0]|77ab|77bc|77cd)", "None", "electric", "MEDIUM", 0).
emissionMap("(53[0])", "78[1][1]", "electric", "MEDIUM", 0).
emissionMap("(53[0])", "(53[1][0]|53[1][1][0]|77[1][0])", "electric", "MEDIUM", 0).
emissionMap("(53[0])", "(53[1][0]|53[1][1][0]|77[1][0]|77ab)", "electric", "MEDIUM", 0).
emissionMap("(53[0])", "(53[1][0]|53[1][1][0]|77[1][0]|77ab|77bc)", "electric", "MEDIUM", 0).
emissionMap("(53[0])", "(53[1][0]|53[1][1][0]|77[1][0]|77ab|77bc|77cd|53cd)", "electric", "MEDIUM", 0).
emissionMap("(53[0])", "(53[1][0]|53[1][1][0]|77[1][0]|77ab|77bc|77cd)", "electric", "MEDIUM", 0).
emissionMap("(53[0])", "(53[1][0])", "electric", "MEDIUM", 0).
emissionMap("(53[0])", "(53[1][0]|53[1][1][0])", "electric", "MEDIUM", 0).
emissionMap("(53[0])", "None", "electric", "MEDIUM", 0).
emissionMap("(53[0]|53[1][0])", "79", "electric", "MEDIUM", 0).
emissionMap("(53[0]|53[1][0])", "(53[1][1][0]|77[1][0])", "electric", "MEDIUM", 0).
emissionMap("(53[0]|53[1][0])", "(53[1][1][0]|77[1][0]|77ab)", "electric", "MEDIUM", 0).
emissionMap("(53[0]|53[1][0])", "(53[1][1][0]|77[1][0]|77ab|77bc)", "electric", "MEDIUM", 0).
emissionMap("(53[0]|53[1][0])", "(53[1][1][0]|77[1][0]|77ab|77bc|77cd|53cd)", "electric", "MEDIUM", 0).
emissionMap("(53[0]|53[1][0])", "(53[1][1][0]|77[1][0]|77ab|77bc|77cd)", "electric", "MEDIUM", 0).
emissionMap("(53[0]|53[1][0])", "(53[1][1][0])", "electric", "MEDIUM", 0).
emissionMap("(53[0]|53[1][0])", "None", "electric", "MEDIUM", 0).
emissionMap("(53[0]|53[1][0]|53[1][1][0])", "(77[1][0])", "electric", "MEDIUM", 0).
emissionMap("(53[0]|53[1][0]|53[1][1][0])", "(77[1][0]|77ab)", "electric", "MEDIUM", 0).
emissionMap("(53[0]|53[1][0]|53[1][1][0])", "(77[1][0]|77ab|77bc)", "electric", "MEDIUM", 0).
emissionMap("(53[0]|53[1][0]|53[1][1][0])", "(77[1][0]|77ab|77bc|77cd|53cd)", "electric", "MEDIUM", 0).
emissionMap("(53[0]|53[1][0]|53[1][1][0])", "(77[1][0]|77ab|77bc|77cd)", "electric", "MEDIUM", 0).
emissionMap("(53[0]|53[1][0]|53[1][1][0])", "None", "electric", "MEDIUM", 0).
emissionMap("(53cd|53[0]|53[1][0]|53[1][1][0]|77[1][0])", "77[1][1]", "electric", "MEDIUM", 0).
emissionMap("(53cd|53[0]|53[1][0]|53[1][1][0]|77[1][0])", "(77ab)", "electric", "MEDIUM", 0).
emissionMap("(53cd|53[0]|53[1][0]|53[1][1][0]|77[1][0])", "(77ab|77bc)", "electric", "MEDIUM", 0).
emissionMap("(53cd|53[0]|53[1][0]|53[1][1][0]|77[1][0])", "(77ab|77bc|77cd)", "electric", "MEDIUM", 0).
emissionMap("(53cd|53[0]|53[1][0]|53[1][1][0]|77[1][0])", "None", "electric", "MEDIUM", 0).
emissionMap("(53cd|53[0]|53[1][0]|53[1][1][0]|77[1][0]|77ab)", "(77bc)", "electric", "MEDIUM", 0).
emissionMap("(53cd|53[0]|53[1][0]|53[1][1][0]|77[1][0]|77ab)", "(77bc|77cd)", "electric", "MEDIUM", 0).
emissionMap("(53cd|53[0]|53[1][0]|53[1][1][0]|77[1][0]|77ab)", "None", "electric", "MEDIUM", 0).
emissionMap("(53cd|53[0]|53[1][0]|53[1][1][0]|77[1][0]|77ab|77bc)", "21a", "electric", "MEDIUM", 0).
emissionMap("(53cd|53[0]|53[1][0]|53[1][1][0]|77[1][0]|77ab|77bc)", "(77cd)", "electric", "MEDIUM", 0).
emissionMap("(53cd|53[0]|53[1][0]|53[1][1][0]|77[1][0]|77ab|77bc)", "None", "electric", "MEDIUM", 0).
emissionMap("(53cd)", "82", "electric", "MEDIUM", 0).
emissionMap("(53cd)", "(53[0]|53[1][0]|53[1][1][0]|77[1][0])", "electric", "MEDIUM", 0).
emissionMap("(53cd)", "(53[0]|53[1][0]|53[1][1][0]|77[1][0]|77ab)", "electric", "MEDIUM", 0).
emissionMap("(53cd)", "(53[0]|53[1][0]|53[1][1][0]|77[1][0]|77ab|77bc)", "electric", "MEDIUM", 0).
emissionMap("(53cd)", "(53[0]|53[1][0]|53[1][1][0]|77[1][0]|77ab|77bc|77cd)", "electric", "MEDIUM", 0).
emissionMap("(53cd)", "(53[0])", "electric", "MEDIUM", 0).
emissionMap("(53cd)", "(53[0]|53[1][0])", "electric", "MEDIUM", 0).
emissionMap("(53cd)", "(53[0]|53[1][0]|53[1][1][0])", "electric", "MEDIUM", 0).
emissionMap("(53cd)", "None", "electric", "MEDIUM", 0).
emissionMap("(53cd|53[0])", "78[1][1]", "electric", "MEDIUM", 0).
emissionMap("(53cd|53[0])", "(53[1][0]|53[1][1][0]|77[1][0])", "electric", "MEDIUM", 0).
emissionMap("(53cd|53[0])", "(53[1][0]|53[1][1][0]|77[1][0]|77ab)", "electric", "MEDIUM", 0).
emissionMap("(53cd|53[0])", "(53[1][0]|53[1][1][0]|77[1][0]|77ab|77bc)", "electric", "MEDIUM", 0).
emissionMap("(53cd|53[0])", "(53[1][0]|53[1][1][0]|77[1][0]|77ab|77bc|77cd)", "electric", "MEDIUM", 0).
emissionMap("(53cd|53[0])", "(53[1][0])", "electric", "MEDIUM", 0).
emissionMap("(53cd|53[0])", "(53[1][0]|53[1][1][0])", "electric", "MEDIUM", 0).
emissionMap("(53cd|53[0])", "None", "electric", "MEDIUM", 0).
emissionMap("(53cd|53[0]|53[1][0])", "79", "electric", "MEDIUM", 0).
emissionMap("(53cd|53[0]|53[1][0])", "(53[1][1][0]|77[1][0])", "electric", "MEDIUM", 0).
emissionMap("(53cd|53[0]|53[1][0])", "(53[1][1][0]|77[1][0]|77ab)", "electric", "MEDIUM", 0).
emissionMap("(53cd|53[0]|53[1][0])", "(53[1][1][0]|77[1][0]|77ab|77bc)", "electric", "MEDIUM", 0).
emissionMap("(53cd|53[0]|53[1][0])", "(53[1][1][0]|77[1][0]|77ab|77bc|77cd)", "electric", "MEDIUM", 0).
emissionMap("(53cd|53[0]|53[1][0])", "(53[1][1][0])", "electric", "MEDIUM", 0).
emissionMap("(53cd|53[0]|53[1][0])", "None", "electric", "MEDIUM", 0).
emissionMap("(53cd|53[0]|53[1][0]|53[1][1][0])", "(77[1][0])", "electric", "MEDIUM", 0).
emissionMap("(53cd|53[0]|53[1][0]|53[1][1][0])", "(77[1][0]|77ab)", "electric", "MEDIUM", 0).
emissionMap("(53cd|53[0]|53[1][0]|53[1][1][0])", "(77[1][0]|77ab|77bc)", "electric", "MEDIUM", 0).
emissionMap("(53cd|53[0]|53[1][0]|53[1][1][0])", "(77[1][0]|77ab|77bc|77cd)", "electric", "MEDIUM", 0).
emissionMap("(53cd|53[0]|53[1][0]|53[1][1][0])", "None", "electric", "MEDIUM", 0).
emissionMap("(53[1][0]|53[1][1][0]|77[1][0])", "77[1][1]", "electric", "MEDIUM", 0).
emissionMap("(53[1][0]|53[1][1][0]|77[1][0])", "(77ab)", "electric", "MEDIUM", 0).
emissionMap("(53[1][0]|53[1][1][0]|77[1][0])", "(77ab|77bc)", "electric", "MEDIUM", 0).
emissionMap("(53[1][0]|53[1][1][0]|77[1][0])", "(77ab|77bc|77cd|53cd)", "electric", "MEDIUM", 0).
emissionMap("(53[1][0]|53[1][1][0]|77[1][0])", "(77ab|77bc|77cd)", "electric", "MEDIUM", 0).
emissionMap("(53[1][0]|53[1][1][0]|77[1][0])", "(77ab|77bc|77cd|53cd|53[0])", "electric", "MEDIUM", 0).
emissionMap("(53[1][0]|53[1][1][0]|77[1][0])", "None", "electric", "MEDIUM", 0).
emissionMap("(53[1][0]|53[1][1][0]|77[1][0]|77ab)", "(77bc)", "electric", "MEDIUM", 0).
emissionMap("(53[1][0]|53[1][1][0]|77[1][0]|77ab)", "(77bc|77cd|53cd)", "electric", "MEDIUM", 0).
emissionMap("(53[1][0]|53[1][1][0]|77[1][0]|77ab)", "(77bc|77cd)", "electric", "MEDIUM", 0).
emissionMap("(53[1][0]|53[1][1][0]|77[1][0]|77ab)", "(77bc|77cd|53cd|53[0])", "electric", "MEDIUM", 0).
emissionMap("(53[1][0]|53[1][1][0]|77[1][0]|77ab)", "None", "electric", "MEDIUM", 0).
emissionMap("(53[1][0]|53[1][1][0]|77[1][0]|77ab|77bc)", "21a", "electric", "MEDIUM", 0).
emissionMap("(53[1][0]|53[1][1][0]|77[1][0]|77ab|77bc)", "(77cd|53cd)", "electric", "MEDIUM", 0).
emissionMap("(53[1][0]|53[1][1][0]|77[1][0]|77ab|77bc)", "(77cd)", "electric", "MEDIUM", 0).
emissionMap("(53[1][0]|53[1][1][0]|77[1][0]|77ab|77bc)", "(77cd|53cd|53[0])", "electric", "MEDIUM", 0).
emissionMap("(53[1][0]|53[1][1][0]|77[1][0]|77ab|77bc)", "None", "electric", "MEDIUM", 0).
emissionMap("(53[1][0]|53[1][1][0]|77[1][0]|77ab|77bc|77cd|53cd)", "82", "electric", "MEDIUM", 0).
emissionMap("(53[1][0]|53[1][1][0]|77[1][0]|77ab|77bc|77cd|53cd)", "(53[0])", "electric", "MEDIUM", 0).
emissionMap("(53[1][0]|53[1][1][0]|77[1][0]|77ab|77bc|77cd|53cd)", "None", "electric", "MEDIUM", 0).
emissionMap("(53[1][0]|53[1][1][0]|77[1][0]|77ab|77bc|77cd)", "(53cd)", "electric", "MEDIUM", 0).
emissionMap("(53[1][0]|53[1][1][0]|77[1][0]|77ab|77bc|77cd)", "(53cd|53[0])", "electric", "MEDIUM", 0).
emissionMap("(53[1][0]|53[1][1][0]|77[1][0]|77ab|77bc|77cd)", "None", "electric", "MEDIUM", 0).
emissionMap("(53[1][0])", "79", "electric", "MEDIUM", 0).
emissionMap("(53[1][0])", "(53[1][1][0]|77[1][0])", "electric", "MEDIUM", 0).
emissionMap("(53[1][0])", "(53[1][1][0]|77[1][0]|77ab)", "electric", "MEDIUM", 0).
emissionMap("(53[1][0])", "(53[1][1][0]|77[1][0]|77ab|77bc)", "electric", "MEDIUM", 0).
emissionMap("(53[1][0])", "(53[1][1][0]|77[1][0]|77ab|77bc|77cd|53cd)", "electric", "MEDIUM", 0).
emissionMap("(53[1][0])", "(53[1][1][0]|77[1][0]|77ab|77bc|77cd)", "electric", "MEDIUM", 0).
emissionMap("(53[1][0])", "(53[1][1][0]|77[1][0]|77ab|77bc|77cd|53cd|53[0])", "electric", "MEDIUM", 0).
emissionMap("(53[1][0])", "(53[1][1][0])", "electric", "MEDIUM", 0).
emissionMap("(53[1][0])", "None", "electric", "MEDIUM", 0).
emissionMap("(53[1][0]|53[1][1][0])", "(77[1][0])", "electric", "MEDIUM", 0).
emissionMap("(53[1][0]|53[1][1][0])", "(77[1][0]|77ab)", "electric", "MEDIUM", 0).
emissionMap("(53[1][0]|53[1][1][0])", "(77[1][0]|77ab|77bc)", "electric", "MEDIUM", 0).
emissionMap("(53[1][0]|53[1][1][0])", "(77[1][0]|77ab|77bc|77cd|53cd)", "electric", "MEDIUM", 0).
emissionMap("(53[1][0]|53[1][1][0])", "(77[1][0]|77ab|77bc|77cd)", "electric", "MEDIUM", 0).
emissionMap("(53[1][0]|53[1][1][0])", "(77[1][0]|77ab|77bc|77cd|53cd|53[0])", "electric", "MEDIUM", 0).
emissionMap("(53[1][0]|53[1][1][0])", "None", "electric", "MEDIUM", 0).
emissionMap("(53[1][1][0]|77[1][0])", "77[1][1]", "electric", "MEDIUM", 0).
emissionMap("(53[1][1][0]|77[1][0])", "(77ab)", "electric", "MEDIUM", 0).
emissionMap("(53[1][1][0]|77[1][0])", "(77ab|77bc)", "electric", "MEDIUM", 0).
emissionMap("(53[1][1][0]|77[1][0])", "(77ab|77bc|77cd|53cd)", "electric", "MEDIUM", 0).
emissionMap("(53[1][1][0]|77[1][0])", "(77ab|77bc|77cd)", "electric", "MEDIUM", 0).
emissionMap("(53[1][1][0]|77[1][0])", "(77ab|77bc|77cd|53cd|53[0])", "electric", "MEDIUM", 0).
emissionMap("(53[1][1][0]|77[1][0])", "(77ab|77bc|77cd|53cd|53[0]|53[1][0])", "electric", "MEDIUM", 0).
emissionMap("(53[1][1][0]|77[1][0])", "None", "electric", "MEDIUM", 0).
emissionMap("(53[1][1][0]|77[1][0]|77ab)", "(77bc)", "electric", "MEDIUM", 0).
emissionMap("(53[1][1][0]|77[1][0]|77ab)", "(77bc|77cd|53cd)", "electric", "MEDIUM", 0).
emissionMap("(53[1][1][0]|77[1][0]|77ab)", "(77bc|77cd)", "electric", "MEDIUM", 0).
emissionMap("(53[1][1][0]|77[1][0]|77ab)", "(77bc|77cd|53cd|53[0])", "electric", "MEDIUM", 0).
emissionMap("(53[1][1][0]|77[1][0]|77ab)", "(77bc|77cd|53cd|53[0]|53[1][0])", "electric", "MEDIUM", 0).
emissionMap("(53[1][1][0]|77[1][0]|77ab)", "None", "electric", "MEDIUM", 0).
emissionMap("(53[1][1][0]|77[1][0]|77ab|77bc)", "21a", "electric", "MEDIUM", 0).
emissionMap("(53[1][1][0]|77[1][0]|77ab|77bc)", "(77cd|53cd)", "electric", "MEDIUM", 0).
emissionMap("(53[1][1][0]|77[1][0]|77ab|77bc)", "(77cd)", "electric", "MEDIUM", 0).
emissionMap("(53[1][1][0]|77[1][0]|77ab|77bc)", "(77cd|53cd|53[0])", "electric", "MEDIUM", 0).
emissionMap("(53[1][1][0]|77[1][0]|77ab|77bc)", "(77cd|53cd|53[0]|53[1][0])", "electric", "MEDIUM", 0).
emissionMap("(53[1][1][0]|77[1][0]|77ab|77bc)", "None", "electric", "MEDIUM", 0).
emissionMap("(53[1][1][0]|77[1][0]|77ab|77bc|77cd|53cd)", "82", "electric", "MEDIUM", 0).
emissionMap("(53[1][1][0]|77[1][0]|77ab|77bc|77cd|53cd)", "(53[0])", "electric", "MEDIUM", 0).
emissionMap("(53[1][1][0]|77[1][0]|77ab|77bc|77cd|53cd)", "(53[0]|53[1][0])", "electric", "MEDIUM", 0).
emissionMap("(53[1][1][0]|77[1][0]|77ab|77bc|77cd|53cd)", "None", "electric", "MEDIUM", 0).
emissionMap("(53[1][1][0]|77[1][0]|77ab|77bc|77cd)", "(53cd)", "electric", "MEDIUM", 0).
emissionMap("(53[1][1][0]|77[1][0]|77ab|77bc|77cd)", "(53cd|53[0])", "electric", "MEDIUM", 0).
emissionMap("(53[1][1][0]|77[1][0]|77ab|77bc|77cd)", "(53cd|53[0]|53[1][0])", "electric", "MEDIUM", 0).
emissionMap("(53[1][1][0]|77[1][0]|77ab|77bc|77cd)", "None", "electric", "MEDIUM", 0).
emissionMap("(53[1][1][0]|77[1][0]|77ab|77bc|77cd|53cd|53[0])", "78[1][1]", "electric", "MEDIUM", 0).
emissionMap("(53[1][1][0]|77[1][0]|77ab|77bc|77cd|53cd|53[0])", "(53[1][0])", "electric", "MEDIUM", 0).
emissionMap("(53[1][1][0]|77[1][0]|77ab|77bc|77cd|53cd|53[0])", "None", "electric", "MEDIUM", 0).
emissionMap("(53[1][1][0])", "(77[1][0])", "electric", "MEDIUM", 0).
emissionMap("(53[1][1][0])", "(77[1][0]|77ab)", "electric", "MEDIUM", 0).
emissionMap("(53[1][1][0])", "(77[1][0]|77ab|77bc)", "electric", "MEDIUM", 0).
emissionMap("(53[1][1][0])", "(77[1][0]|77ab|77bc|77cd|53cd)", "electric", "MEDIUM", 0).
emissionMap("(53[1][1][0])", "(77[1][0]|77ab|77bc|77cd)", "electric", "MEDIUM", 0).
emissionMap("(53[1][1][0])", "(77[1][0]|77ab|77bc|77cd|53cd|53[0])", "electric", "MEDIUM", 0).
emissionMap("(53[1][1][0])", "(77[1][0]|77ab|77bc|77cd|53cd|53[0]|53[1][0])", "electric", "MEDIUM", 0).
emissionMap("(53[1][1][0])", "None", "electric", "MEDIUM", 0).
emissionMap("(77[1][0])", "77[1][1]", "electric", "MEDIUM", 0).
emissionMap("(77[1][0])", "(77ab)", "electric", "MEDIUM", 0).
emissionMap("(77[1][0])", "(77ab|77bc)", "electric", "MEDIUM", 0).
emissionMap("(77[1][0])", "(77ab|77bc|77cd|53cd)", "electric", "MEDIUM", 0).
emissionMap("(77[1][0])", "(77ab|77bc|77cd)", "electric", "MEDIUM", 0).
emissionMap("(77[1][0])", "(77ab|77bc|77cd|53cd|53[0])", "electric", "MEDIUM", 0).
emissionMap("(77[1][0])", "(77ab|77bc|77cd|53cd|53[0]|53[1][0])", "electric", "MEDIUM", 0).
emissionMap("(77[1][0])", "(77ab|77bc|77cd|53cd|53[0]|53[1][0]|53[1][1][0])", "electric", "MEDIUM", 0).
emissionMap("(77[1][0])", "None", "electric", "MEDIUM", 0).
emissionMap("(77[1][0]|77ab)", "(77bc)", "electric", "MEDIUM", 0).
emissionMap("(77[1][0]|77ab)", "(77bc|77cd|53cd)", "electric", "MEDIUM", 0).
emissionMap("(77[1][0]|77ab)", "(77bc|77cd)", "electric", "MEDIUM", 0).
emissionMap("(77[1][0]|77ab)", "(77bc|77cd|53cd|53[0])", "electric", "MEDIUM", 0).
emissionMap("(77[1][0]|77ab)", "(77bc|77cd|53cd|53[0]|53[1][0])", "electric", "MEDIUM", 0).
emissionMap("(77[1][0]|77ab)", "(77bc|77cd|53cd|53[0]|53[1][0]|53[1][1][0])", "electric", "MEDIUM", 0).
emissionMap("(77[1][0]|77ab)", "None", "electric", "MEDIUM", 0).
emissionMap("(77[1][0]|77ab|77bc)", "21a", "electric", "MEDIUM", 0).
emissionMap("(77[1][0]|77ab|77bc)", "(77cd|53cd)", "electric", "MEDIUM", 0).
emissionMap("(77[1][0]|77ab|77bc)", "(77cd)", "electric", "MEDIUM", 0).
emissionMap("(77[1][0]|77ab|77bc)", "(77cd|53cd|53[0])", "electric", "MEDIUM", 0).
emissionMap("(77[1][0]|77ab|77bc)", "(77cd|53cd|53[0]|53[1][0])", "electric", "MEDIUM", 0).
emissionMap("(77[1][0]|77ab|77bc)", "(77cd|53cd|53[0]|53[1][0]|53[1][1][0])", "electric", "MEDIUM", 0).
emissionMap("(77[1][0]|77ab|77bc)", "None", "electric", "MEDIUM", 0).
emissionMap("(77[1][0]|77ab|77bc|77cd|53cd)", "82", "electric", "MEDIUM", 0).
emissionMap("(77[1][0]|77ab|77bc|77cd|53cd)", "(53[0])", "electric", "MEDIUM", 0).
emissionMap("(77[1][0]|77ab|77bc|77cd|53cd)", "(53[0]|53[1][0])", "electric", "MEDIUM", 0).
emissionMap("(77[1][0]|77ab|77bc|77cd|53cd)", "(53[0]|53[1][0]|53[1][1][0])", "electric", "MEDIUM", 0).
emissionMap("(77[1][0]|77ab|77bc|77cd|53cd)", "None", "electric", "MEDIUM", 0).
emissionMap("(77[1][0]|77ab|77bc|77cd)", "(53cd)", "electric", "MEDIUM", 0).
emissionMap("(77[1][0]|77ab|77bc|77cd)", "(53cd|53[0])", "electric", "MEDIUM", 0).
emissionMap("(77[1][0]|77ab|77bc|77cd)", "(53cd|53[0]|53[1][0])", "electric", "MEDIUM", 0).
emissionMap("(77[1][0]|77ab|77bc|77cd)", "(53cd|53[0]|53[1][0]|53[1][1][0])", "electric", "MEDIUM", 0).
emissionMap("(77[1][0]|77ab|77bc|77cd)", "None", "electric", "MEDIUM", 0).
emissionMap("(77[1][0]|77ab|77bc|77cd|53cd|53[0])", "78[1][1]", "electric", "MEDIUM", 0).
emissionMap("(77[1][0]|77ab|77bc|77cd|53cd|53[0])", "(53[1][0])", "electric", "MEDIUM", 0).
emissionMap("(77[1][0]|77ab|77bc|77cd|53cd|53[0])", "(53[1][0]|53[1][1][0])", "electric", "MEDIUM", 0).
emissionMap("(77[1][0]|77ab|77bc|77cd|53cd|53[0])", "None", "electric", "MEDIUM", 0).
emissionMap("(77[1][0]|77ab|77bc|77cd|53cd|53[0]|53[1][0])", "79", "electric", "MEDIUM", 0).
emissionMap("(77[1][0]|77ab|77bc|77cd|53cd|53[0]|53[1][0])", "(53[1][1][0])", "electric", "MEDIUM", 0).
emissionMap("(77[1][0]|77ab|77bc|77cd|53cd|53[0]|53[1][0])", "None", "electric", "MEDIUM", 0).
emissionMap("1", "204a[0]", "electric", "LIGHT", 0).
emissionMap("1", "None", "electric", "LIGHT", 0).
emissionMap("10", "[13|104]", "electric", "LIGHT", 0).
emissionMap("10", "None", "electric", "LIGHT", 0).
emissionMap("103", "14", "electric", "LIGHT", 0).
emissionMap("103", "16", "electric", "LIGHT", 0).
emissionMap("103", "49", "electric", "LIGHT", 0).
emissionMap("103", "None", "electric", "LIGHT", 0).
emissionMap("104", "16", "electric", "LIGHT", 0).
emissionMap("104", "24", "electric", "LIGHT", 0).
emissionMap("104", "49", "electric", "LIGHT", 0).
emissionMap("104", "None", "electric", "LIGHT", 0).
emissionMap("109[0]", "109[1][0]+20003", "electric", "LIGHT", 0).
emissionMap("109[0]", "None", "electric", "LIGHT", 0).
emissionMap("109[1][0]+20003", "109[1][1]", "electric", "LIGHT", 0).
emissionMap("109[1][0]+20003", "None", "electric", "LIGHT", 0).
emissionMap("109[1][1]", "120", "electric", "LIGHT", 0).
emissionMap("109[1][1]", "[116|46]", "electric", "LIGHT", 0).
emissionMap("109[1][1]", "None", "electric", "LIGHT", 0).
emissionMap("11", "72[0]", "electric", "LIGHT", 0).
emissionMap("11", "84", "electric", "LIGHT", 0).
emissionMap("11", "86", "electric", "LIGHT", 0).
emissionMap("11", "None", "electric", "LIGHT", 0).
emissionMap("113", "118", "electric", "LIGHT", 0).
emissionMap("113", "209", "electric", "LIGHT", 0).
emissionMap("113", "None", "electric", "LIGHT", 0).
emissionMap("114", "None", "electric", "LIGHT", 0).
emissionMap("116", "46", "electric", "LIGHT", 0).
emissionMap("116", "None", "electric", "LIGHT", 0).
emissionMap("117", "209", "electric", "LIGHT", 0).
emissionMap("117", "None", "electric", "LIGHT", 0).
emissionMap("118", "119", "electric", "LIGHT", 0).
emissionMap("118", "65", "electric", "LIGHT", 0).
emissionMap("118", "None", "electric", "LIGHT", 0).
emissionMap("119", "[116|46]", "electric", "LIGHT", 0).
emissionMap("119", "None", "electric", "LIGHT", 0).
emissionMap("12", "67", "electric", "LIGHT", 0).
emissionMap("12", "86", "electric", "LIGHT", 0).
emissionMap("12", "None", "electric", "LIGHT", 0).
emissionMap("120", "117", "electric", "LIGHT", 0).
emissionMap("120", "65", "electric", "LIGHT", 0).
emissionMap("120", "None", "electric", "LIGHT", 0).
emissionMap("122", "1b", "electric", "LIGHT", 0).
emissionMap("122", "[3|2]", "electric", "LIGHT", 0).
emissionMap("122", "None", "electric", "LIGHT", 0).
emissionMap("124", "None", "electric", "LIGHT", 0).
emissionMap("127", "(77[1][0])", "electric", "LIGHT", 0).
emissionMap("127", "(77[1][0]|77ab)", "electric", "LIGHT", 0).
emissionMap("127", "(77[1][0]|77ab|77bc)", "electric", "LIGHT", 0).
emissionMap("127", "(77[1][0]|77ab|77bc|77cd|53cd)", "electric", "LIGHT", 0).
emissionMap("127", "(77[1][0]|77ab|77bc|77cd)", "electric", "LIGHT", 0).
emissionMap("127", "(77[1][0]|77ab|77bc|77cd|53cd|53[0])", "electric", "LIGHT", 0).
emissionMap("127", "(77[1][0]|77ab|77bc|77cd|53cd|53[0]|53[1][0])", "electric", "LIGHT", 0).
emissionMap("127", "None", "electric", "LIGHT", 0).
emissionMap("13", "104", "electric", "LIGHT", 0).
emissionMap("13", "None", "electric", "LIGHT", 0).
emissionMap("131", "117", "electric", "LIGHT", 0).
emissionMap("131", "119", "electric", "LIGHT", 0).
emissionMap("131", "65", "electric", "LIGHT", 0).
emissionMap("131", "None", "electric", "LIGHT", 0).
emissionMap("133", "31", "electric", "LIGHT", 0).
emissionMap("133", "None", "electric", "LIGHT", 0).
emissionMap("134", "[134b|133]", "electric", "LIGHT", 0).
emissionMap("134", "None", "electric", "LIGHT", 0).
emissionMap("134b", "133", "electric", "LIGHT", 0).
emissionMap("134b", "None", "electric", "LIGHT", 0).
emissionMap("135", "[181|18]", "electric", "LIGHT", 0).
emissionMap("135", "None", "electric", "LIGHT", 0).
emissionMap("136", "135", "electric", "LIGHT", 0).
emissionMap("136", "None", "electric", "LIGHT", 0).
emissionMap("137", "180", "electric", "LIGHT", 0).
emissionMap("137", "None", "electric", "LIGHT", 0).
emissionMap("138", "137", "electric", "LIGHT", 0).
emissionMap("138", "None", "electric", "LIGHT", 0).
emissionMap("14", "9", "electric", "LIGHT", 0).
emissionMap("14", "None", "electric", "LIGHT", 0).
emissionMap("15", "14", "electric", "LIGHT", 0).
emissionMap("15", "24", "electric", "LIGHT", 0).
emissionMap("15", "49", "electric", "LIGHT", 0).
emissionMap("15", "None", "electric", "LIGHT", 0).
emissionMap("153", "[87[0]|20001+87[1][0]|87[1][1]]", "electric", "LIGHT", 0).
emissionMap("153", "None", "electric", "LIGHT", 0).
emissionMap("159", "42", "electric", "LIGHT", 0).
emissionMap("159", "None", "electric", "LIGHT", 0).
emissionMap("16", "37", "electric", "LIGHT", 0).
emissionMap("16", "None", "electric", "LIGHT", 0).
emissionMap("160", "61", "electric", "LIGHT", 0).
emissionMap("160", "None", "electric", "LIGHT", 0).
emissionMap("161", "122", "electric", "LIGHT", 0).
emissionMap("161", "194", "electric", "LIGHT", 0).
emissionMap("161", "None", "electric", "LIGHT", 0).
emissionMap("165", "166", "electric", "LIGHT", 0).
emissionMap("165", "31", "electric", "LIGHT", 0).
emissionMap("165", "[134b|133]", "electric", "LIGHT", 0).
emissionMap("165", "None", "electric", "LIGHT", 0).
emissionMap("166", "None", "electric", "LIGHT", 0).
emissionMap("17", "71", "electric", "LIGHT", 0).
emissionMap("17", "None", "electric", "LIGHT", 0).
emissionMap("171", "161", "electric", "LIGHT", 0).
emissionMap("171", "None", "electric", "LIGHT", 0).
emissionMap("173", "58[0]", "electric", "LIGHT", 0).
emissionMap("173", "62", "electric", "LIGHT", 0).
emissionMap("173", "None", "electric", "LIGHT", 0).
emissionMap("18", "69", "electric", "LIGHT", 0).
emissionMap("18", "[17|71]", "electric", "LIGHT", 0).
emissionMap("18", "None", "electric", "LIGHT", 0).
emissionMap("180", "[136|135]", "electric", "LIGHT", 0).
emissionMap("180", "[181|18]", "electric", "LIGHT", 0).
emissionMap("180", "None", "electric", "LIGHT", 0).
emissionMap("181", "18", "electric", "LIGHT", 0).
emissionMap("181", "None", "electric", "LIGHT", 0).
emissionMap("186", "[109[0]|109[1][0]+20003|109[1][1]]", "electric", "LIGHT", 0).
emissionMap("186", "None", "electric", "LIGHT", 0).
emissionMap("188", "[87[0]|20001+87[1][0]|87[1][1]]", "electric", "LIGHT", 0).
emissionMap("188", "None", "electric", "LIGHT", 0).
emissionMap("189[0]", "189[1][0]+20000", "electric", "LIGHT", 0).
emissionMap("189[0]", "None", "electric", "LIGHT", 0).
emissionMap("189[1][0]+20000", "189[1][1]", "electric", "LIGHT", 0).
emissionMap("189[1][0]+20000", "None", "electric", "LIGHT", 0).
emissionMap("189[1][1]", "188", "electric", "LIGHT", 0).
emissionMap("189[1][1]", "191", "electric", "LIGHT", 0).
emissionMap("189[1][1]", "None", "electric", "LIGHT", 0).
emissionMap("19", "103", "electric", "LIGHT", 0).
emissionMap("19", "[22|59]", "electric", "LIGHT", 0).
emissionMap("19", "None", "electric", "LIGHT", 0).
emissionMap("191", "69", "electric", "LIGHT", 0).
emissionMap("191", "[17|71]", "electric", "LIGHT", 0).
emissionMap("191", "None", "electric", "LIGHT", 0).
emissionMap("194", "91", "electric", "LIGHT", 0).
emissionMap("194", "None", "electric", "LIGHT", 0).
emissionMap("195", "159", "electric", "LIGHT", 0).
emissionMap("195", "61", "electric", "LIGHT", 0).
emissionMap("195", "None", "electric", "LIGHT", 0).
emissionMap("197", "[109[0]|109[1][0]+20003|109[1][1]]", "electric", "LIGHT", 0).
emissionMap("197", "None", "electric", "LIGHT", 0).
emissionMap("1b", "1", "electric", "LIGHT", 0).
emissionMap("1b", "None", "electric", "LIGHT", 0).
emissionMap("2", "4", "electric", "LIGHT", 0).
emissionMap("2", "[202|34]", "electric", "LIGHT", 0).
emissionMap("2", "None", "electric", "LIGHT", 0).
emissionMap("20", "219", "electric", "LIGHT", 0).
emissionMap("20", "None", "electric", "LIGHT", 0).
emissionMap("200", "60", "electric", "LIGHT", 0).
emissionMap("200", "None", "electric", "LIGHT", 0).
emissionMap("20001+87[1][0]", "87[1][1]", "electric", "LIGHT", 0).
emissionMap("20001+87[1][0]", "None", "electric", "LIGHT", 0).
emissionMap("20002+89[1][0]", "89[1][1]", "electric", "LIGHT", 0).
emissionMap("20002+89[1][0]", "None", "electric", "LIGHT", 0).
emissionMap("201", "201c", "electric", "LIGHT", 0).
emissionMap("201", "4c", "electric", "LIGHT", 0).
emissionMap("201", "None", "electric", "LIGHT", 0).
emissionMap("201c", "204a[0]", "electric", "LIGHT", 0).
emissionMap("201c", "None", "electric", "LIGHT", 0).
emissionMap("202", "34", "electric", "LIGHT", 0).
emissionMap("202", "None", "electric", "LIGHT", 0).
emissionMap("203[0]", "203[1]", "electric", "LIGHT", 0).
emissionMap("203[0]", "None", "electric", "LIGHT", 0).
emissionMap("203[1]", "203[1]b", "electric", "LIGHT", 0).
emissionMap("203[1]", "None", "electric", "LIGHT", 0).
emissionMap("203[1]b", "[202|34]", "electric", "LIGHT", 0).
emissionMap("203[1]b", "None", "electric", "LIGHT", 0).
emissionMap("204[1][0]", "204[1][1]", "electric", "LIGHT", 0).
emissionMap("204[1][0]", "None", "electric", "LIGHT", 0).
emissionMap("204[1][1]", "None", "electric", "LIGHT", 0).
emissionMap("204a[0]", "124", "electric", "LIGHT", 0).
emissionMap("204a[0]", "204b[0]", "electric", "LIGHT", 0).
emissionMap("204a[0]", "None", "electric", "LIGHT", 0).
emissionMap("204b[0]", "204[1][0]", "electric", "LIGHT", 0).
emissionMap("204b[0]", "54", "electric", "LIGHT", 0).
emissionMap("204b[0]", "None", "electric", "LIGHT", 0).
emissionMap("206", "30", "electric", "LIGHT", 0).
emissionMap("206", "32", "electric", "LIGHT", 0).
emissionMap("206", "None", "electric", "LIGHT", 0).
emissionMap("209", "None", "electric", "LIGHT", 0).
emissionMap("210", "43[0]", "electric", "LIGHT", 0).
emissionMap("210", "None", "electric", "LIGHT", 0).
emissionMap("211", "45", "electric", "LIGHT", 0).
emissionMap("211", "None", "electric", "LIGHT", 0).
emissionMap("212", "10", "electric", "LIGHT", 0).
emissionMap("212", "None", "electric", "LIGHT", 0).
emissionMap("218", "36", "electric", "LIGHT", 0).
emissionMap("218", "38", "electric", "LIGHT", 0).
emissionMap("218", "None", "electric", "LIGHT", 0).
emissionMap("219", "218", "electric", "LIGHT", 0).
emissionMap("219", "None", "electric", "LIGHT", 0).
emissionMap("21a", "21b", "electric", "LIGHT", 0).
emissionMap("21a", "None", "electric", "LIGHT", 0).
emissionMap("21b", "103", "electric", "LIGHT", 0).
emissionMap("21b", "20", "electric", "LIGHT", 0).
emissionMap("21b", "None", "electric", "LIGHT", 0).
emissionMap("22", "59", "electric", "LIGHT", 0).
emissionMap("22", "None", "electric", "LIGHT", 0).
emissionMap("220", "19", "electric", "LIGHT", 0).
emissionMap("220", "None", "electric", "LIGHT", 0).
emissionMap("220b", "218", "electric", "LIGHT", 0).
emissionMap("220b", "220", "electric", "LIGHT", 0).
emissionMap("220b", "None", "electric", "LIGHT", 0).
emissionMap("222", "None", "electric", "LIGHT", 0).
emissionMap("224[0]", "222", "electric", "LIGHT", 0).
emissionMap("224[0]", "224[1]", "electric", "LIGHT", 0).
emissionMap("224[0]", "None", "electric", "LIGHT", 0).
emissionMap("224[1]", "[136|135]", "electric", "LIGHT", 0).
emissionMap("224[1]", "[181|18]", "electric", "LIGHT", 0).
emissionMap("224[1]", "None", "electric", "LIGHT", 0).
emissionMap("24", "20", "electric", "LIGHT", 0).
emissionMap("24", "[22|59]", "electric", "LIGHT", 0).
emissionMap("24", "None", "electric", "LIGHT", 0).
emissionMap("25", "74", "electric", "LIGHT", 0).
emissionMap("25", "[68|11]", "electric", "LIGHT", 0).
emissionMap("25", "[80|127]", "electric", "LIGHT", 0).
emissionMap("25", "None", "electric", "LIGHT", 0).
emissionMap("26", "25", "electric", "LIGHT", 0).
emissionMap("26", "None", "electric", "LIGHT", 0).
emissionMap("28", "None", "electric", "LIGHT", 0).
emissionMap("3", "2", "electric", "LIGHT", 0).
emissionMap("3", "None", "electric", "LIGHT", 0).
emissionMap("30", "None", "electric", "LIGHT", 0).
emissionMap("31", "113", "electric", "LIGHT", 0).
emissionMap("31", "201", "electric", "LIGHT", 0).
emissionMap("31", "None", "electric", "LIGHT", 0).
emissionMap("32", "35", "electric", "LIGHT", 0).
emissionMap("32", "40", "electric", "LIGHT", 0).
emissionMap("32", "None", "electric", "LIGHT", 0).
emissionMap("33", "10", "electric", "LIGHT", 0).
emissionMap("33", "[211|45]", "electric", "LIGHT", 0).
emissionMap("33", "None", "electric", "LIGHT", 0).
emissionMap("34", "113", "electric", "LIGHT", 0).
emissionMap("34", "134", "electric", "LIGHT", 0).
emissionMap("34", "None", "electric", "LIGHT", 0).
emissionMap("35", "38", "electric", "LIGHT", 0).
emissionMap("35", "None", "electric", "LIGHT", 0).
emissionMap("36", "40", "electric", "LIGHT", 0).
emissionMap("36", "None", "electric", "LIGHT", 0).
emissionMap("37", "36", "electric", "LIGHT", 0).
emissionMap("37", "None", "electric", "LIGHT", 0).
emissionMap("38", "15", "electric", "LIGHT", 0).
emissionMap("38", "33", "electric", "LIGHT", 0).
emissionMap("38", "50", "electric", "LIGHT", 0).
emissionMap("38", "None", "electric", "LIGHT", 0).
emissionMap("39", "35", "electric", "LIGHT", 0).
emissionMap("39", "None", "electric", "LIGHT", 0).
emissionMap("4", "4c", "electric", "LIGHT", 0).
emissionMap("4", "None", "electric", "LIGHT", 0).
emissionMap("40", "153", "electric", "LIGHT", 0).
emissionMap("40", "41", "electric", "LIGHT", 0).
emissionMap("40", "93", "electric", "LIGHT", 0).
emissionMap("40", "None", "electric", "LIGHT", 0).
emissionMap("41", "160", "electric", "LIGHT", 0).
emissionMap("41", "None", "electric", "LIGHT", 0).
emissionMap("42", "153", "electric", "LIGHT", 0).
emissionMap("42", "39", "electric", "LIGHT", 0).
emissionMap("42", "None", "electric", "LIGHT", 0).
emissionMap("43[0]", "118", "electric", "LIGHT", 0).
emissionMap("43[0]", "43[1]", "electric", "LIGHT", 0).
emissionMap("43[0]", "None", "electric", "LIGHT", 0).
emissionMap("43[1]", "134", "electric", "LIGHT", 0).
emissionMap("43[1]", "201", "electric", "LIGHT", 0).
emissionMap("43[1]", "None", "electric", "LIGHT", 0).
emissionMap("44", "36", "electric", "LIGHT", 0).
emissionMap("44", "38", "electric", "LIGHT", 0).
emissionMap("44", "None", "electric", "LIGHT", 0).
emissionMap("45", "206", "electric", "LIGHT", 0).
emissionMap("45", "44", "electric", "LIGHT", 0).
emissionMap("45", "None", "electric", "LIGHT", 0).
emissionMap("46", "113", "electric", "LIGHT", 0).
emissionMap("46", "134", "electric", "LIGHT", 0).
emissionMap("46", "201", "electric", "LIGHT", 0).
emissionMap("46", "None", "electric", "LIGHT", 0).
emissionMap("48", "160", "electric", "LIGHT", 0).
emissionMap("48", "42", "electric", "LIGHT", 0).
emissionMap("48", "None", "electric", "LIGHT", 0).
emissionMap("49", "None", "electric", "LIGHT", 0).
emissionMap("4c", "None", "electric", "LIGHT", 0).
emissionMap("50", "19", "electric", "LIGHT", 0).
emissionMap("50", "219", "electric", "LIGHT", 0).
emissionMap("50", "None", "electric", "LIGHT", 0).
emissionMap("51", "19", "electric", "LIGHT", 0).
emissionMap("51", "219", "electric", "LIGHT", 0).
emissionMap("51", "None", "electric", "LIGHT", 0).
emissionMap("53[0]", "78[1][1]", "electric", "LIGHT", 0).
emissionMap("53[0]", "(53[1][0]|53[1][1][0]|77[1][0])", "electric", "LIGHT", 0).
emissionMap("53[0]", "(53[1][0]|53[1][1][0]|77[1][0]|77ab)", "electric", "LIGHT", 0).
emissionMap("53[0]", "(53[1][0]|53[1][1][0]|77[1][0]|77ab|77bc)", "electric", "LIGHT", 0).
emissionMap("53[0]", "(53[1][0]|53[1][1][0]|77[1][0]|77ab|77bc|77cd|53cd)", "electric", "LIGHT", 0).
emissionMap("53[0]", "(53[1][0]|53[1][1][0]|77[1][0]|77ab|77bc|77cd)", "electric", "LIGHT", 0).
emissionMap("53[0]", "(53[1][0])", "electric", "LIGHT", 0).
emissionMap("53[0]", "(53[1][0]|53[1][1][0])", "electric", "LIGHT", 0).
emissionMap("53[0]", "None", "electric", "LIGHT", 0).
emissionMap("53[1][0]", "79", "electric", "LIGHT", 0).
emissionMap("53[1][0]", "(53[1][1][0]|77[1][0])", "electric", "LIGHT", 0).
emissionMap("53[1][0]", "(53[1][1][0]|77[1][0]|77ab)", "electric", "LIGHT", 0).
emissionMap("53[1][0]", "(53[1][1][0]|77[1][0]|77ab|77bc)", "electric", "LIGHT", 0).
emissionMap("53[1][0]", "(53[1][1][0]|77[1][0]|77ab|77bc|77cd|53cd)", "electric", "LIGHT", 0).
emissionMap("53[1][0]", "(53[1][1][0]|77[1][0]|77ab|77bc|77cd)", "electric", "LIGHT", 0).
emissionMap("53[1][0]", "(53[1][1][0]|77[1][0]|77ab|77bc|77cd|53cd|53[0])", "electric", "LIGHT", 0).
emissionMap("53[1][0]", "(53[1][1][0])", "electric", "LIGHT", 0).
emissionMap("53[1][0]", "None", "electric", "LIGHT", 0).
emissionMap("53[1][1][0]", "(77[1][0])", "electric", "LIGHT", 0).
emissionMap("53[1][1][0]", "(77[1][0]|77ab)", "electric", "LIGHT", 0).
emissionMap("53[1][1][0]", "(77[1][0]|77ab|77bc)", "electric", "LIGHT", 0).
emissionMap("53[1][1][0]", "(77[1][0]|77ab|77bc|77cd|53cd)", "electric", "LIGHT", 0).
emissionMap("53[1][1][0]", "(77[1][0]|77ab|77bc|77cd)", "electric", "LIGHT", 0).
emissionMap("53[1][1][0]", "(77[1][0]|77ab|77bc|77cd|53cd|53[0])", "electric", "LIGHT", 0).
emissionMap("53[1][1][0]", "(77[1][0]|77ab|77bc|77cd|53cd|53[0]|53[1][0])", "electric", "LIGHT", 0).
emissionMap("53[1][1][0]", "None", "electric", "LIGHT", 0).
emissionMap("53cd", "82", "electric", "LIGHT", 0).
emissionMap("53cd", "(53[0]|53[1][0]|53[1][1][0]|77[1][0])", "electric", "LIGHT", 0).
emissionMap("53cd", "(53[0]|53[1][0]|53[1][1][0]|77[1][0]|77ab)", "electric", "LIGHT", 0).
emissionMap("53cd", "(53[0]|53[1][0]|53[1][1][0]|77[1][0]|77ab|77bc)", "electric", "LIGHT", 0).
emissionMap("53cd", "(53[0]|53[1][0]|53[1][1][0]|77[1][0]|77ab|77bc|77cd)", "electric", "LIGHT", 0).
emissionMap("53cd", "(53[0])", "electric", "LIGHT", 0).
emissionMap("53cd", "(53[0]|53[1][0])", "electric", "LIGHT", 0).
emissionMap("53cd", "(53[0]|53[1][0]|53[1][1][0])", "electric", "LIGHT", 0).
emissionMap("53cd", "None", "electric", "LIGHT", 0).
emissionMap("54", "None", "electric", "LIGHT", 0).
emissionMap("56a", "56b", "electric", "LIGHT", 0).
emissionMap("56a", "m1", "electric", "LIGHT", 0).
emissionMap("56a", "None", "electric", "LIGHT", 0).
emissionMap("56b", "(77bc|77cd|53cd|53[0]|53[1][0]|53[1][1][0]|77[1][0])", "electric", "LIGHT", 0).
emissionMap("56b", "(77bc)", "electric", "LIGHT", 0).
emissionMap("56b", "(77bc|77cd|53cd)", "electric", "LIGHT", 0).
emissionMap("56b", "(77bc|77cd)", "electric", "LIGHT", 0).
emissionMap("56b", "(77bc|77cd|53cd|53[0])", "electric", "LIGHT", 0).
emissionMap("56b", "(77bc|77cd|53cd|53[0]|53[1][0])", "electric", "LIGHT", 0).
emissionMap("56b", "(77bc|77cd|53cd|53[0]|53[1][0]|53[1][1][0])", "electric", "LIGHT", 0).
emissionMap("56b", "None", "electric", "LIGHT", 0).
emissionMap("57[0]", "57[1]", "electric", "LIGHT", 0).
emissionMap("57[0]", "None", "electric", "LIGHT", 0).
emissionMap("57[1]", "62", "electric", "LIGHT", 0).
emissionMap("57[1]", "None", "electric", "LIGHT", 0).
emissionMap("58[0]", "58[1]", "electric", "LIGHT", 0).
emissionMap("58[0]", "None", "electric", "LIGHT", 0).
emissionMap("58[1]", "197", "electric", "LIGHT", 0).
emissionMap("58[1]", "66", "electric", "LIGHT", 0).
emissionMap("58[1]", "[200|60]", "electric", "LIGHT", 0).
emissionMap("58[1]", "None", "electric", "LIGHT", 0).
emissionMap("59", "(53cd|53[0]|53[1][0]|53[1][1][0]|77[1][0])", "electric", "LIGHT", 0).
emissionMap("59", "(53cd|53[0]|53[1][0]|53[1][1][0]|77[1][0]|77ab)", "electric", "LIGHT", 0).
emissionMap("59", "(53cd|53[0]|53[1][0]|53[1][1][0]|77[1][0]|77ab|77bc)", "electric", "LIGHT", 0).
emissionMap("59", "(53cd)", "electric", "LIGHT", 0).
emissionMap("59", "(53cd|53[0])", "electric", "LIGHT", 0).
emissionMap("59", "(53cd|53[0]|53[1][0])", "electric", "LIGHT", 0).
emissionMap("59", "(53cd|53[0]|53[1][0]|53[1][1][0])", "electric", "LIGHT", 0).
emissionMap("59", "None", "electric", "LIGHT", 0).
emissionMap("60", "None", "electric", "LIGHT", 0).
emissionMap("61", "58[0]", "electric", "LIGHT", 0).
emissionMap("61", "None", "electric", "LIGHT", 0).
emissionMap("62", "159", "electric", "LIGHT", 0).
emissionMap("62", "None", "electric", "LIGHT", 0).
emissionMap("65", "197", "electric", "LIGHT", 0).
emissionMap("65", "57[0]", "electric", "LIGHT", 0).
emissionMap("65", "[200|60]", "electric", "LIGHT", 0).
emissionMap("65", "None", "electric", "LIGHT", 0).
emissionMap("66", "117", "electric", "LIGHT", 0).
emissionMap("66", "119", "electric", "LIGHT", 0).
emissionMap("66", "None", "electric", "LIGHT", 0).
emissionMap("67", "[80|127]", "electric", "LIGHT", 0).
emissionMap("67", "[26|25]", "electric", "LIGHT", 0).
emissionMap("67", "None", "electric", "LIGHT", 0).
emissionMap("68", "11", "electric", "LIGHT", 0).
emissionMap("68", "None", "electric", "LIGHT", 0).
emissionMap("69", "161", "electric", "LIGHT", 0).
emissionMap("69", "None", "electric", "LIGHT", 0).
emissionMap("71", "67", "electric", "LIGHT", 0).
emissionMap("71", "84", "electric", "LIGHT", 0).
emissionMap("71", "86", "electric", "LIGHT", 0).
emissionMap("71", "None", "electric", "LIGHT", 0).
emissionMap("72[0]", "72[1]", "electric", "LIGHT", 0).
emissionMap("72[0]", "None", "electric", "LIGHT", 0).
emissionMap("72[1]", "69", "electric", "LIGHT", 0).
emissionMap("72[1]", "None", "electric", "LIGHT", 0).
emissionMap("74", "72[1]", "electric", "LIGHT", 0).
emissionMap("74", "None", "electric", "LIGHT", 0).
emissionMap("75", "51", "electric", "LIGHT", 0).
emissionMap("75", "None", "electric", "LIGHT", 0).
emissionMap("77[1][0]", "77[1][1]", "electric", "LIGHT", 0).
emissionMap("77[1][0]", "(77ab)", "electric", "LIGHT", 0).
emissionMap("77[1][0]", "(77ab|77bc)", "electric", "LIGHT", 0).
emissionMap("77[1][0]", "(77ab|77bc|77cd|53cd)", "electric", "LIGHT", 0).
emissionMap("77[1][0]", "(77ab|77bc|77cd)", "electric", "LIGHT", 0).
emissionMap("77[1][0]", "(77ab|77bc|77cd|53cd|53[0])", "electric", "LIGHT", 0).
emissionMap("77[1][0]", "(77ab|77bc|77cd|53cd|53[0]|53[1][0])", "electric", "LIGHT", 0).
emissionMap("77[1][0]", "(77ab|77bc|77cd|53cd|53[0]|53[1][0]|53[1][1][0])", "electric", "LIGHT", 0).
emissionMap("77[1][0]", "None", "electric", "LIGHT", 0).
emissionMap("77[1][1]", "None", "electric", "LIGHT", 0).
emissionMap("77ab", "(77bc|77cd|53cd|53[0]|53[1][0]|53[1][1][0]|77[1][0])", "electric", "LIGHT", 0).
emissionMap("77ab", "(77bc)", "electric", "LIGHT", 0).
emissionMap("77ab", "(77bc|77cd|53cd)", "electric", "LIGHT", 0).
emissionMap("77ab", "(77bc|77cd)", "electric", "LIGHT", 0).
emissionMap("77ab", "(77bc|77cd|53cd|53[0])", "electric", "LIGHT", 0).
emissionMap("77ab", "(77bc|77cd|53cd|53[0]|53[1][0])", "electric", "LIGHT", 0).
emissionMap("77ab", "(77bc|77cd|53cd|53[0]|53[1][0]|53[1][1][0])", "electric", "LIGHT", 0).
emissionMap("77ab", "None", "electric", "LIGHT", 0).
emissionMap("77bc", "21a", "electric", "LIGHT", 0).
emissionMap("77bc", "(77cd|53cd|53[0]|53[1][0]|53[1][1][0]|77[1][0])", "electric", "LIGHT", 0).
emissionMap("77bc", "(77cd|53cd|53[0]|53[1][0]|53[1][1][0]|77[1][0]|77ab)", "electric", "LIGHT", 0).
emissionMap("77bc", "(77cd|53cd)", "electric", "LIGHT", 0).
emissionMap("77bc", "(77cd)", "electric", "LIGHT", 0).
emissionMap("77bc", "(77cd|53cd|53[0])", "electric", "LIGHT", 0).
emissionMap("77bc", "(77cd|53cd|53[0]|53[1][0])", "electric", "LIGHT", 0).
emissionMap("77bc", "(77cd|53cd|53[0]|53[1][0]|53[1][1][0])", "electric", "LIGHT", 0).
emissionMap("77bc", "None", "electric", "LIGHT", 0).
emissionMap("77cd", "(53cd|53[0]|53[1][0]|53[1][1][0]|77[1][0])", "electric", "LIGHT", 0).
emissionMap("77cd", "(53cd|53[0]|53[1][0]|53[1][1][0]|77[1][0]|77ab)", "electric", "LIGHT", 0).
emissionMap("77cd", "(53cd|53[0]|53[1][0]|53[1][1][0]|77[1][0]|77ab|77bc)", "electric", "LIGHT", 0).
emissionMap("77cd", "(53cd)", "electric", "LIGHT", 0).
emissionMap("77cd", "(53cd|53[0])", "electric", "LIGHT", 0).
emissionMap("77cd", "(53cd|53[0]|53[1][0])", "electric", "LIGHT", 0).
emissionMap("77cd", "(53cd|53[0]|53[1][0]|53[1][1][0])", "electric", "LIGHT", 0).
emissionMap("77cd", "None", "electric", "LIGHT", 0).
emissionMap("78[0]", "56a", "electric", "LIGHT", 0).
emissionMap("78[0]", "None", "electric", "LIGHT", 0).
emissionMap("78[1][1]", "75", "electric", "LIGHT", 0).
emissionMap("78[1][1]", "[189[0]|189[1][0]+20000|189[1][1]]", "electric", "LIGHT", 0).
emissionMap("78[1][1]", "None", "electric", "LIGHT", 0).
emissionMap("79", "74", "electric", "LIGHT", 0).
emissionMap("79", "[68|11]", "electric", "LIGHT", 0).
emissionMap("79", "[26|25]", "electric", "LIGHT", 0).
emissionMap("79", "None", "electric", "LIGHT", 0).
emissionMap("8", "9", "electric", "LIGHT", 0).
emissionMap("8", "[13|104]", "electric", "LIGHT", 0).
emissionMap("8", "None", "electric", "LIGHT", 0).
emissionMap("80", "127", "electric", "LIGHT", 0).
emissionMap("80", "None", "electric", "LIGHT", 0).
emissionMap("82", "51", "electric", "LIGHT", 0).
emissionMap("82", "None", "electric", "LIGHT", 0).
emissionMap("83", "12", "electric", "LIGHT", 0).
emissionMap("83", "None", "electric", "LIGHT", 0).
emissionMap("84", "180", "electric", "LIGHT", 0).
emissionMap("84", "[138|137]", "electric", "LIGHT", 0).
emissionMap("84", "None", "electric", "LIGHT", 0).
emissionMap("85", "67", "electric", "LIGHT", 0).
emissionMap("85", "72[0]", "electric", "LIGHT", 0).
emissionMap("85", "84", "electric", "LIGHT", 0).
emissionMap("85", "None", "electric", "LIGHT", 0).
emissionMap("86", "None", "electric", "LIGHT", 0).
emissionMap("87[0]", "20001+87[1][0]", "electric", "LIGHT", 0).
emissionMap("87[0]", "None", "electric", "LIGHT", 0).
emissionMap("87[1][1]", "97", "electric", "LIGHT", 0).
emissionMap("87[1][1]", "m90", "electric", "LIGHT", 0).
emissionMap("87[1][1]", "None", "electric", "LIGHT", 0).
emissionMap("89[0]", "20002+89[1][0]", "electric", "LIGHT", 0).
emissionMap("89[0]", "None", "electric", "LIGHT", 0).
emissionMap("89[1][1]", "91", "electric", "LIGHT", 0).
emissionMap("89[1][1]", "None", "electric", "LIGHT", 0).
emissionMap("9", "[211|45]", "electric", "LIGHT", 0).
emissionMap("9", "None", "electric", "LIGHT", 0).
emissionMap("91", "173", "electric", "LIGHT", 0).
emissionMap("91", "186", "electric", "LIGHT", 0).
emissionMap("91", "None", "electric", "LIGHT", 0).
emissionMap("93", "28", "electric", "LIGHT", 0).
emissionMap("93", "48", "electric", "LIGHT", 0).
emissionMap("93", "None", "electric", "LIGHT", 0).
emissionMap("97", "160", "electric", "LIGHT", 0).
emissionMap("97", "42", "electric", "LIGHT", 0).
emissionMap("97", "None", "electric", "LIGHT", 0).
emissionMap("m1", "21b", "electric", "LIGHT", 0).
emissionMap("m1", "None", "electric", "LIGHT", 0).
emissionMap("m2", "54", "electric", "LIGHT", 0).
emissionMap("m2", "None", "electric", "LIGHT", 0).
emissionMap("m90", "171", "electric", "LIGHT", 0).
emissionMap("m90", "[89[0]|20002+89[1][0]|89[1][1]]", "electric", "LIGHT", 0).
emissionMap("m90", "None", "electric", "LIGHT", 0).
emissionMap("[13|104]", "16", "electric", "LIGHT", 0).
emissionMap("[13|104]", "24", "electric", "LIGHT", 0).
emissionMap("[13|104]", "49", "electric", "LIGHT", 0).
emissionMap("[13|104]", "None", "electric", "LIGHT", 0).
emissionMap("[109[0]|109[1][0]+20003|109[1][1]]", "120", "electric", "LIGHT", 0).
emissionMap("[109[0]|109[1][0]+20003|109[1][1]]", "[116|46]", "electric", "LIGHT", 0).
emissionMap("[109[0]|109[1][0]+20003|109[1][1]]", "None", "electric", "LIGHT", 0).
emissionMap("[68|11]", "72[0]", "electric", "LIGHT", 0).
emissionMap("[68|11]", "84", "electric", "LIGHT", 0).
emissionMap("[68|11]", "86", "electric", "LIGHT", 0).
emissionMap("[68|11]", "None", "electric", "LIGHT", 0).
emissionMap("[116|46]", "113", "electric", "LIGHT", 0).
emissionMap("[116|46]", "134", "electric", "LIGHT", 0).
emissionMap("[116|46]", "201", "electric", "LIGHT", 0).
emissionMap("[116|46]", "None", "electric", "LIGHT", 0).
emissionMap("[83|12]", "67", "electric", "LIGHT", 0).
emissionMap("[83|12]", "86", "electric", "LIGHT", 0).
emissionMap("[83|12]", "None", "electric", "LIGHT", 0).
emissionMap("[80|127]", "(77[1][0])", "electric", "LIGHT", 0).
emissionMap("[80|127]", "(77[1][0]|77ab)", "electric", "LIGHT", 0).
emissionMap("[80|127]", "(77[1][0]|77ab|77bc)", "electric", "LIGHT", 0).
emissionMap("[80|127]", "(77[1][0]|77ab|77bc|77cd|53cd)", "electric", "LIGHT", 0).
emissionMap("[80|127]", "(77[1][0]|77ab|77bc|77cd)", "electric", "LIGHT", 0).
emissionMap("[80|127]", "(77[1][0]|77ab|77bc|77cd|53cd|53[0])", "electric", "LIGHT", 0).
emissionMap("[80|127]", "(77[1][0]|77ab|77bc|77cd|53cd|53[0]|53[1][0])", "electric", "LIGHT", 0).
emissionMap("[80|127]", "None", "electric", "LIGHT", 0).
emissionMap("[134b|133]", "31", "electric", "LIGHT", 0).
emissionMap("[134b|133]", "None", "electric", "LIGHT", 0).
emissionMap("[136|135]", "[181|18]", "electric", "LIGHT", 0).
emissionMap("[136|135]", "None", "electric", "LIGHT", 0).
emissionMap("[138|137]", "180", "electric", "LIGHT", 0).
emissionMap("[138|137]", "None", "electric", "LIGHT", 0).
emissionMap("[17|71]", "67", "electric", "LIGHT", 0).
emissionMap("[17|71]", "84", "electric", "LIGHT", 0).
emissionMap("[17|71]", "86", "electric", "LIGHT", 0).
emissionMap("[17|71]", "None", "electric", "LIGHT", 0).
emissionMap("[181|18]", "69", "electric", "LIGHT", 0).
emissionMap("[181|18]", "[17|71]", "electric", "LIGHT", 0).
emissionMap("[181|18]", "None", "electric", "LIGHT", 0).
emissionMap("[189[0]|189[1][0]+20000|189[1][1]]", "188", "electric", "LIGHT", 0).
emissionMap("[189[0]|189[1][0]+20000|189[1][1]]", "191", "electric", "LIGHT", 0).
emissionMap("[189[0]|189[1][0]+20000|189[1][1]]", "None", "electric", "LIGHT", 0).
emissionMap("[3|2]", "4", "electric", "LIGHT", 0).
emissionMap("[3|2]", "[202|34]", "electric", "LIGHT", 0).
emissionMap("[3|2]", "None", "electric", "LIGHT", 0).
emissionMap("[200|60]", "None", "electric", "LIGHT", 0).
emissionMap("[87[0]|20001+87[1][0]|87[1][1]]", "97", "electric", "LIGHT", 0).
emissionMap("[87[0]|20001+87[1][0]|87[1][1]]", "m90", "electric", "LIGHT", 0).
emissionMap("[87[0]|20001+87[1][0]|87[1][1]]", "None", "electric", "LIGHT", 0).
emissionMap("[89[0]|20002+89[1][0]|89[1][1]]", "91", "electric", "LIGHT", 0).
emissionMap("[89[0]|20002+89[1][0]|89[1][1]]", "None", "electric", "LIGHT", 0).
emissionMap("[202|34]", "113", "electric", "LIGHT", 0).
emissionMap("[202|34]", "134", "electric", "LIGHT", 0).
emissionMap("[202|34]", "None", "electric", "LIGHT", 0).
emissionMap("[210|43[0]]", "118", "electric", "LIGHT", 0).
emissionMap("[210|43[0]]", "43[1]", "electric", "LIGHT", 0).
emissionMap("[210|43[0]]", "None", "electric", "LIGHT", 0).
emissionMap("[211|45]", "206", "electric", "LIGHT", 0).
emissionMap("[211|45]", "44", "electric", "LIGHT", 0).
emissionMap("[211|45]", "None", "electric", "LIGHT", 0).
emissionMap("[22|59]", "(53cd|53[0]|53[1][0]|53[1][1][0]|77[1][0])", "electric", "LIGHT", 0).
emissionMap("[22|59]", "(53cd|53[0]|53[1][0]|53[1][1][0]|77[1][0]|77ab)", "electric", "LIGHT", 0).
emissionMap("[22|59]", "(53cd|53[0]|53[1][0]|53[1][1][0]|77[1][0]|77ab|77bc)", "electric", "LIGHT", 0).
emissionMap("[22|59]", "(53cd)", "electric", "LIGHT", 0).
emissionMap("[22|59]", "(53cd|53[0])", "electric", "LIGHT", 0).
emissionMap("[22|59]", "(53cd|53[0]|53[1][0])", "electric", "LIGHT", 0).
emissionMap("[22|59]", "(53cd|53[0]|53[1][0]|53[1][1][0])", "electric", "LIGHT", 0).
emissionMap("[22|59]", "None", "electric", "LIGHT", 0).
emissionMap("[26|25]", "74", "electric", "LIGHT", 0).
emissionMap("[26|25]", "[68|11]", "electric", "LIGHT", 0).
emissionMap("[26|25]", "[80|127]", "electric", "LIGHT", 0).
emissionMap("[26|25]", "None", "electric", "LIGHT", 0).
emissionMap("[78[0]|56a]", "56b", "electric", "LIGHT", 0).
emissionMap("[78[0]|56a]", "m1", "electric", "LIGHT", 0).
emissionMap("[78[0]|56a]", "None", "electric", "LIGHT", 0).
emissionMap("(77ab)", "(77bc|77cd|53cd|53[0]|53[1][0]|53[1][1][0]|77[1][0])", "electric", "LIGHT", 0).
emissionMap("(77ab)", "(77bc)", "electric", "LIGHT", 0).
emissionMap("(77ab)", "(77bc|77cd|53cd)", "electric", "LIGHT", 0).
emissionMap("(77ab)", "(77bc|77cd)", "electric", "LIGHT", 0).
emissionMap("(77ab)", "(77bc|77cd|53cd|53[0])", "electric", "LIGHT", 0).
emissionMap("(77ab)", "(77bc|77cd|53cd|53[0]|53[1][0])", "electric", "LIGHT", 0).
emissionMap("(77ab)", "(77bc|77cd|53cd|53[0]|53[1][0]|53[1][1][0])", "electric", "LIGHT", 0).
emissionMap("(77ab)", "None", "electric", "LIGHT", 0).
emissionMap("(77ab|77bc)", "21a", "electric", "LIGHT", 0).
emissionMap("(77ab|77bc)", "(77cd|53cd|53[0]|53[1][0]|53[1][1][0]|77[1][0])", "electric", "LIGHT", 0).
emissionMap("(77ab|77bc)", "(77cd|53cd)", "electric", "LIGHT", 0).
emissionMap("(77ab|77bc)", "(77cd)", "electric", "LIGHT", 0).
emissionMap("(77ab|77bc)", "(77cd|53cd|53[0])", "electric", "LIGHT", 0).
emissionMap("(77ab|77bc)", "(77cd|53cd|53[0]|53[1][0])", "electric", "LIGHT", 0).
emissionMap("(77ab|77bc)", "(77cd|53cd|53[0]|53[1][0]|53[1][1][0])", "electric", "LIGHT", 0).
emissionMap("(77ab|77bc)", "None", "electric", "LIGHT", 0).
emissionMap("(77ab|77bc|77cd|53cd)", "82", "electric", "LIGHT", 0).
emissionMap("(77ab|77bc|77cd|53cd)", "(53[0]|53[1][0]|53[1][1][0]|77[1][0])", "electric", "LIGHT", 0).
emissionMap("(77ab|77bc|77cd|53cd)", "(53[0])", "electric", "LIGHT", 0).
emissionMap("(77ab|77bc|77cd|53cd)", "(53[0]|53[1][0])", "electric", "LIGHT", 0).
emissionMap("(77ab|77bc|77cd|53cd)", "(53[0]|53[1][0]|53[1][1][0])", "electric", "LIGHT", 0).
emissionMap("(77ab|77bc|77cd|53cd)", "None", "electric", "LIGHT", 0).
emissionMap("(77ab|77bc|77cd)", "(53cd|53[0]|53[1][0]|53[1][1][0]|77[1][0])", "electric", "LIGHT", 0).
emissionMap("(77ab|77bc|77cd)", "(53cd)", "electric", "LIGHT", 0).
emissionMap("(77ab|77bc|77cd)", "(53cd|53[0])", "electric", "LIGHT", 0).
emissionMap("(77ab|77bc|77cd)", "(53cd|53[0]|53[1][0])", "electric", "LIGHT", 0).
emissionMap("(77ab|77bc|77cd)", "(53cd|53[0]|53[1][0]|53[1][1][0])", "electric", "LIGHT", 0).
emissionMap("(77ab|77bc|77cd)", "None", "electric", "LIGHT", 0).
emissionMap("(77ab|77bc|77cd|53cd|53[0])", "78[1][1]", "electric", "LIGHT", 0).
emissionMap("(77ab|77bc|77cd|53cd|53[0])", "(53[1][0]|53[1][1][0]|77[1][0])", "electric", "LIGHT", 0).
emissionMap("(77ab|77bc|77cd|53cd|53[0])", "(53[1][0])", "electric", "LIGHT", 0).
emissionMap("(77ab|77bc|77cd|53cd|53[0])", "(53[1][0]|53[1][1][0])", "electric", "LIGHT", 0).
emissionMap("(77ab|77bc|77cd|53cd|53[0])", "None", "electric", "LIGHT", 0).
emissionMap("(77ab|77bc|77cd|53cd|53[0]|53[1][0])", "79", "electric", "LIGHT", 0).
emissionMap("(77ab|77bc|77cd|53cd|53[0]|53[1][0])", "(53[1][1][0]|77[1][0])", "electric", "LIGHT", 0).
emissionMap("(77ab|77bc|77cd|53cd|53[0]|53[1][0])", "(53[1][1][0])", "electric", "LIGHT", 0).
emissionMap("(77ab|77bc|77cd|53cd|53[0]|53[1][0])", "None", "electric", "LIGHT", 0).
emissionMap("(77ab|77bc|77cd|53cd|53[0]|53[1][0]|53[1][1][0])", "(77[1][0])", "electric", "LIGHT", 0).
emissionMap("(77ab|77bc|77cd|53cd|53[0]|53[1][0]|53[1][1][0])", "None", "electric", "LIGHT", 0).
emissionMap("(77bc|77cd|53cd|53[0]|53[1][0]|53[1][1][0]|77[1][0])", "77[1][1]", "electric", "LIGHT", 0).
emissionMap("(77bc|77cd|53cd|53[0]|53[1][0]|53[1][1][0]|77[1][0])", "(77ab)", "electric", "LIGHT", 0).
emissionMap("(77bc|77cd|53cd|53[0]|53[1][0]|53[1][1][0]|77[1][0])", "None", "electric", "LIGHT", 0).
emissionMap("(77bc)", "21a", "electric", "LIGHT", 0).
emissionMap("(77bc)", "(77cd|53cd|53[0]|53[1][0]|53[1][1][0]|77[1][0])", "electric", "LIGHT", 0).
emissionMap("(77bc)", "(77cd|53cd|53[0]|53[1][0]|53[1][1][0]|77[1][0]|77ab)", "electric", "LIGHT", 0).
emissionMap("(77bc)", "(77cd|53cd)", "electric", "LIGHT", 0).
emissionMap("(77bc)", "(77cd)", "electric", "LIGHT", 0).
emissionMap("(77bc)", "(77cd|53cd|53[0])", "electric", "LIGHT", 0).
emissionMap("(77bc)", "(77cd|53cd|53[0]|53[1][0])", "electric", "LIGHT", 0).
emissionMap("(77bc)", "(77cd|53cd|53[0]|53[1][0]|53[1][1][0])", "electric", "LIGHT", 0).
emissionMap("(77bc)", "None", "electric", "LIGHT", 0).
emissionMap("(77bc|77cd|53cd)", "82", "electric", "LIGHT", 0).
emissionMap("(77bc|77cd|53cd)", "(53[0]|53[1][0]|53[1][1][0]|77[1][0])", "electric", "LIGHT", 0).
emissionMap("(77bc|77cd|53cd)", "(53[0]|53[1][0]|53[1][1][0]|77[1][0]|77ab)", "electric", "LIGHT", 0).
emissionMap("(77bc|77cd|53cd)", "(53[0])", "electric", "LIGHT", 0).
emissionMap("(77bc|77cd|53cd)", "(53[0]|53[1][0])", "electric", "LIGHT", 0).
emissionMap("(77bc|77cd|53cd)", "(53[0]|53[1][0]|53[1][1][0])", "electric", "LIGHT", 0).
emissionMap("(77bc|77cd|53cd)", "None", "electric", "LIGHT", 0).
emissionMap("(77bc|77cd)", "(53cd|53[0]|53[1][0]|53[1][1][0]|77[1][0])", "electric", "LIGHT", 0).
emissionMap("(77bc|77cd)", "(53cd|53[0]|53[1][0]|53[1][1][0]|77[1][0]|77ab)", "electric", "LIGHT", 0).
emissionMap("(77bc|77cd)", "(53cd)", "electric", "LIGHT", 0).
emissionMap("(77bc|77cd)", "(53cd|53[0])", "electric", "LIGHT", 0).
emissionMap("(77bc|77cd)", "(53cd|53[0]|53[1][0])", "electric", "LIGHT", 0).
emissionMap("(77bc|77cd)", "(53cd|53[0]|53[1][0]|53[1][1][0])", "electric", "LIGHT", 0).
emissionMap("(77bc|77cd)", "None", "electric", "LIGHT", 0).
emissionMap("(77bc|77cd|53cd|53[0])", "78[1][1]", "electric", "LIGHT", 0).
emissionMap("(77bc|77cd|53cd|53[0])", "(53[1][0]|53[1][1][0]|77[1][0])", "electric", "LIGHT", 0).
emissionMap("(77bc|77cd|53cd|53[0])", "(53[1][0]|53[1][1][0]|77[1][0]|77ab)", "electric", "LIGHT", 0).
emissionMap("(77bc|77cd|53cd|53[0])", "(53[1][0])", "electric", "LIGHT", 0).
emissionMap("(77bc|77cd|53cd|53[0])", "(53[1][0]|53[1][1][0])", "electric", "LIGHT", 0).
emissionMap("(77bc|77cd|53cd|53[0])", "None", "electric", "LIGHT", 0).
emissionMap("(77bc|77cd|53cd|53[0]|53[1][0])", "79", "electric", "LIGHT", 0).
emissionMap("(77bc|77cd|53cd|53[0]|53[1][0])", "(53[1][1][0]|77[1][0])", "electric", "LIGHT", 0).
emissionMap("(77bc|77cd|53cd|53[0]|53[1][0])", "(53[1][1][0]|77[1][0]|77ab)", "electric", "LIGHT", 0).
emissionMap("(77bc|77cd|53cd|53[0]|53[1][0])", "(53[1][1][0])", "electric", "LIGHT", 0).
emissionMap("(77bc|77cd|53cd|53[0]|53[1][0])", "None", "electric", "LIGHT", 0).
emissionMap("(77bc|77cd|53cd|53[0]|53[1][0]|53[1][1][0])", "(77[1][0])", "electric", "LIGHT", 0).
emissionMap("(77bc|77cd|53cd|53[0]|53[1][0]|53[1][1][0])", "(77[1][0]|77ab)", "electric", "LIGHT", 0).
emissionMap("(77bc|77cd|53cd|53[0]|53[1][0]|53[1][1][0])", "None", "electric", "LIGHT", 0).
emissionMap("(77cd|53cd|53[0]|53[1][0]|53[1][1][0]|77[1][0])", "77[1][1]", "electric", "LIGHT", 0).
emissionMap("(77cd|53cd|53[0]|53[1][0]|53[1][1][0]|77[1][0])", "(77ab)", "electric", "LIGHT", 0).
emissionMap("(77cd|53cd|53[0]|53[1][0]|53[1][1][0]|77[1][0])", "(77ab|77bc)", "electric", "LIGHT", 0).
emissionMap("(77cd|53cd|53[0]|53[1][0]|53[1][1][0]|77[1][0])", "None", "electric", "LIGHT", 0).
emissionMap("(77cd|53cd|53[0]|53[1][0]|53[1][1][0]|77[1][0]|77ab)", "(77bc)", "electric", "LIGHT", 0).
emissionMap("(77cd|53cd|53[0]|53[1][0]|53[1][1][0]|77[1][0]|77ab)", "None", "electric", "LIGHT", 0).
emissionMap("(77cd|53cd)", "82", "electric", "LIGHT", 0).
emissionMap("(77cd|53cd)", "(53[0]|53[1][0]|53[1][1][0]|77[1][0])", "electric", "LIGHT", 0).
emissionMap("(77cd|53cd)", "(53[0]|53[1][0]|53[1][1][0]|77[1][0]|77ab)", "electric", "LIGHT", 0).
emissionMap("(77cd|53cd)", "(53[0]|53[1][0]|53[1][1][0]|77[1][0]|77ab|77bc)", "electric", "LIGHT", 0).
emissionMap("(77cd|53cd)", "(53[0])", "electric", "LIGHT", 0).
emissionMap("(77cd|53cd)", "(53[0]|53[1][0])", "electric", "LIGHT", 0).
emissionMap("(77cd|53cd)", "(53[0]|53[1][0]|53[1][1][0])", "electric", "LIGHT", 0).
emissionMap("(77cd|53cd)", "None", "electric", "LIGHT", 0).
emissionMap("(77cd)", "(53cd|53[0]|53[1][0]|53[1][1][0]|77[1][0])", "electric", "LIGHT", 0).
emissionMap("(77cd)", "(53cd|53[0]|53[1][0]|53[1][1][0]|77[1][0]|77ab)", "electric", "LIGHT", 0).
emissionMap("(77cd)", "(53cd|53[0]|53[1][0]|53[1][1][0]|77[1][0]|77ab|77bc)", "electric", "LIGHT", 0).
emissionMap("(77cd)", "(53cd)", "electric", "LIGHT", 0).
emissionMap("(77cd)", "(53cd|53[0])", "electric", "LIGHT", 0).
emissionMap("(77cd)", "(53cd|53[0]|53[1][0])", "electric", "LIGHT", 0).
emissionMap("(77cd)", "(53cd|53[0]|53[1][0]|53[1][1][0])", "electric", "LIGHT", 0).
emissionMap("(77cd)", "None", "electric", "LIGHT", 0).
emissionMap("(77cd|53cd|53[0])", "78[1][1]", "electric", "LIGHT", 0).
emissionMap("(77cd|53cd|53[0])", "(53[1][0]|53[1][1][0]|77[1][0])", "electric", "LIGHT", 0).
emissionMap("(77cd|53cd|53[0])", "(53[1][0]|53[1][1][0]|77[1][0]|77ab)", "electric", "LIGHT", 0).
emissionMap("(77cd|53cd|53[0])", "(53[1][0]|53[1][1][0]|77[1][0]|77ab|77bc)", "electric", "LIGHT", 0).
emissionMap("(77cd|53cd|53[0])", "(53[1][0])", "electric", "LIGHT", 0).
emissionMap("(77cd|53cd|53[0])", "(53[1][0]|53[1][1][0])", "electric", "LIGHT", 0).
emissionMap("(77cd|53cd|53[0])", "None", "electric", "LIGHT", 0).
emissionMap("(77cd|53cd|53[0]|53[1][0])", "79", "electric", "LIGHT", 0).
emissionMap("(77cd|53cd|53[0]|53[1][0])", "(53[1][1][0]|77[1][0])", "electric", "LIGHT", 0).
emissionMap("(77cd|53cd|53[0]|53[1][0])", "(53[1][1][0]|77[1][0]|77ab)", "electric", "LIGHT", 0).
emissionMap("(77cd|53cd|53[0]|53[1][0])", "(53[1][1][0]|77[1][0]|77ab|77bc)", "electric", "LIGHT", 0).
emissionMap("(77cd|53cd|53[0]|53[1][0])", "(53[1][1][0])", "electric", "LIGHT", 0).
emissionMap("(77cd|53cd|53[0]|53[1][0])", "None", "electric", "LIGHT", 0).
emissionMap("(77cd|53cd|53[0]|53[1][0]|53[1][1][0])", "(77[1][0])", "electric", "LIGHT", 0).
emissionMap("(77cd|53cd|53[0]|53[1][0]|53[1][1][0])", "(77[1][0]|77ab)", "electric", "LIGHT", 0).
emissionMap("(77cd|53cd|53[0]|53[1][0]|53[1][1][0])", "(77[1][0]|77ab|77bc)", "electric", "LIGHT", 0).
emissionMap("(77cd|53cd|53[0]|53[1][0]|53[1][1][0])", "None", "electric", "LIGHT", 0).
emissionMap("(53[0]|53[1][0]|53[1][1][0]|77[1][0])", "77[1][1]", "electric", "LIGHT", 0).
emissionMap("(53[0]|53[1][0]|53[1][1][0]|77[1][0])", "(77ab)", "electric", "LIGHT", 0).
emissionMap("(53[0]|53[1][0]|53[1][1][0]|77[1][0])", "(77ab|77bc)", "electric", "LIGHT", 0).
emissionMap("(53[0]|53[1][0]|53[1][1][0]|77[1][0])", "(77ab|77bc|77cd|53cd)", "electric", "LIGHT", 0).
emissionMap("(53[0]|53[1][0]|53[1][1][0]|77[1][0])", "(77ab|77bc|77cd)", "electric", "LIGHT", 0).
emissionMap("(53[0]|53[1][0]|53[1][1][0]|77[1][0])", "None", "electric", "LIGHT", 0).
emissionMap("(53[0]|53[1][0]|53[1][1][0]|77[1][0]|77ab)", "(77bc)", "electric", "LIGHT", 0).
emissionMap("(53[0]|53[1][0]|53[1][1][0]|77[1][0]|77ab)", "(77bc|77cd|53cd)", "electric", "LIGHT", 0).
emissionMap("(53[0]|53[1][0]|53[1][1][0]|77[1][0]|77ab)", "(77bc|77cd)", "electric", "LIGHT", 0).
emissionMap("(53[0]|53[1][0]|53[1][1][0]|77[1][0]|77ab)", "None", "electric", "LIGHT", 0).
emissionMap("(53[0]|53[1][0]|53[1][1][0]|77[1][0]|77ab|77bc)", "21a", "electric", "LIGHT", 0).
emissionMap("(53[0]|53[1][0]|53[1][1][0]|77[1][0]|77ab|77bc)", "(77cd|53cd)", "electric", "LIGHT", 0).
emissionMap("(53[0]|53[1][0]|53[1][1][0]|77[1][0]|77ab|77bc)", "(77cd)", "electric", "LIGHT", 0).
emissionMap("(53[0]|53[1][0]|53[1][1][0]|77[1][0]|77ab|77bc)", "None", "electric", "LIGHT", 0).
emissionMap("(53[0]|53[1][0]|53[1][1][0]|77[1][0]|77ab|77bc|77cd)", "(53cd)", "electric", "LIGHT", 0).
emissionMap("(53[0]|53[1][0]|53[1][1][0]|77[1][0]|77ab|77bc|77cd)", "None", "electric", "LIGHT", 0).
emissionMap("(53[0])", "78[1][1]", "electric", "LIGHT", 0).
emissionMap("(53[0])", "(53[1][0]|53[1][1][0]|77[1][0])", "electric", "LIGHT", 0).
emissionMap("(53[0])", "(53[1][0]|53[1][1][0]|77[1][0]|77ab)", "electric", "LIGHT", 0).
emissionMap("(53[0])", "(53[1][0]|53[1][1][0]|77[1][0]|77ab|77bc)", "electric", "LIGHT", 0).
emissionMap("(53[0])", "(53[1][0]|53[1][1][0]|77[1][0]|77ab|77bc|77cd|53cd)", "electric", "LIGHT", 0).
emissionMap("(53[0])", "(53[1][0]|53[1][1][0]|77[1][0]|77ab|77bc|77cd)", "electric", "LIGHT", 0).
emissionMap("(53[0])", "(53[1][0])", "electric", "LIGHT", 0).
emissionMap("(53[0])", "(53[1][0]|53[1][1][0])", "electric", "LIGHT", 0).
emissionMap("(53[0])", "None", "electric", "LIGHT", 0).
emissionMap("(53[0]|53[1][0])", "79", "electric", "LIGHT", 0).
emissionMap("(53[0]|53[1][0])", "(53[1][1][0]|77[1][0])", "electric", "LIGHT", 0).
emissionMap("(53[0]|53[1][0])", "(53[1][1][0]|77[1][0]|77ab)", "electric", "LIGHT", 0).
emissionMap("(53[0]|53[1][0])", "(53[1][1][0]|77[1][0]|77ab|77bc)", "electric", "LIGHT", 0).
emissionMap("(53[0]|53[1][0])", "(53[1][1][0]|77[1][0]|77ab|77bc|77cd|53cd)", "electric", "LIGHT", 0).
emissionMap("(53[0]|53[1][0])", "(53[1][1][0]|77[1][0]|77ab|77bc|77cd)", "electric", "LIGHT", 0).
emissionMap("(53[0]|53[1][0])", "(53[1][1][0])", "electric", "LIGHT", 0).
emissionMap("(53[0]|53[1][0])", "None", "electric", "LIGHT", 0).
emissionMap("(53[0]|53[1][0]|53[1][1][0])", "(77[1][0])", "electric", "LIGHT", 0).
emissionMap("(53[0]|53[1][0]|53[1][1][0])", "(77[1][0]|77ab)", "electric", "LIGHT", 0).
emissionMap("(53[0]|53[1][0]|53[1][1][0])", "(77[1][0]|77ab|77bc)", "electric", "LIGHT", 0).
emissionMap("(53[0]|53[1][0]|53[1][1][0])", "(77[1][0]|77ab|77bc|77cd|53cd)", "electric", "LIGHT", 0).
emissionMap("(53[0]|53[1][0]|53[1][1][0])", "(77[1][0]|77ab|77bc|77cd)", "electric", "LIGHT", 0).
emissionMap("(53[0]|53[1][0]|53[1][1][0])", "None", "electric", "LIGHT", 0).
emissionMap("(53cd|53[0]|53[1][0]|53[1][1][0]|77[1][0])", "77[1][1]", "electric", "LIGHT", 0).
emissionMap("(53cd|53[0]|53[1][0]|53[1][1][0]|77[1][0])", "(77ab)", "electric", "LIGHT", 0).
emissionMap("(53cd|53[0]|53[1][0]|53[1][1][0]|77[1][0])", "(77ab|77bc)", "electric", "LIGHT", 0).
emissionMap("(53cd|53[0]|53[1][0]|53[1][1][0]|77[1][0])", "(77ab|77bc|77cd)", "electric", "LIGHT", 0).
emissionMap("(53cd|53[0]|53[1][0]|53[1][1][0]|77[1][0])", "None", "electric", "LIGHT", 0).
emissionMap("(53cd|53[0]|53[1][0]|53[1][1][0]|77[1][0]|77ab)", "(77bc)", "electric", "LIGHT", 0).
emissionMap("(53cd|53[0]|53[1][0]|53[1][1][0]|77[1][0]|77ab)", "(77bc|77cd)", "electric", "LIGHT", 0).
emissionMap("(53cd|53[0]|53[1][0]|53[1][1][0]|77[1][0]|77ab)", "None", "electric", "LIGHT", 0).
emissionMap("(53cd|53[0]|53[1][0]|53[1][1][0]|77[1][0]|77ab|77bc)", "21a", "electric", "LIGHT", 0).
emissionMap("(53cd|53[0]|53[1][0]|53[1][1][0]|77[1][0]|77ab|77bc)", "(77cd)", "electric", "LIGHT", 0).
emissionMap("(53cd|53[0]|53[1][0]|53[1][1][0]|77[1][0]|77ab|77bc)", "None", "electric", "LIGHT", 0).
emissionMap("(53cd)", "82", "electric", "LIGHT", 0).
emissionMap("(53cd)", "(53[0]|53[1][0]|53[1][1][0]|77[1][0])", "electric", "LIGHT", 0).
emissionMap("(53cd)", "(53[0]|53[1][0]|53[1][1][0]|77[1][0]|77ab)", "electric", "LIGHT", 0).
emissionMap("(53cd)", "(53[0]|53[1][0]|53[1][1][0]|77[1][0]|77ab|77bc)", "electric", "LIGHT", 0).
emissionMap("(53cd)", "(53[0]|53[1][0]|53[1][1][0]|77[1][0]|77ab|77bc|77cd)", "electric", "LIGHT", 0).
emissionMap("(53cd)", "(53[0])", "electric", "LIGHT", 0).
emissionMap("(53cd)", "(53[0]|53[1][0])", "electric", "LIGHT", 0).
emissionMap("(53cd)", "(53[0]|53[1][0]|53[1][1][0])", "electric", "LIGHT", 0).
emissionMap("(53cd)", "None", "electric", "LIGHT", 0).
emissionMap("(53cd|53[0])", "78[1][1]", "electric", "LIGHT", 0).
emissionMap("(53cd|53[0])", "(53[1][0]|53[1][1][0]|77[1][0])", "electric", "LIGHT", 0).
emissionMap("(53cd|53[0])", "(53[1][0]|53[1][1][0]|77[1][0]|77ab)", "electric", "LIGHT", 0).
emissionMap("(53cd|53[0])", "(53[1][0]|53[1][1][0]|77[1][0]|77ab|77bc)", "electric", "LIGHT", 0).
emissionMap("(53cd|53[0])", "(53[1][0]|53[1][1][0]|77[1][0]|77ab|77bc|77cd)", "electric", "LIGHT", 0).
emissionMap("(53cd|53[0])", "(53[1][0])", "electric", "LIGHT", 0).
emissionMap("(53cd|53[0])", "(53[1][0]|53[1][1][0])", "electric", "LIGHT", 0).
emissionMap("(53cd|53[0])", "None", "electric", "LIGHT", 0).
emissionMap("(53cd|53[0]|53[1][0])", "79", "electric", "LIGHT", 0).
emissionMap("(53cd|53[0]|53[1][0])", "(53[1][1][0]|77[1][0])", "electric", "LIGHT", 0).
emissionMap("(53cd|53[0]|53[1][0])", "(53[1][1][0]|77[1][0]|77ab)", "electric", "LIGHT", 0).
emissionMap("(53cd|53[0]|53[1][0])", "(53[1][1][0]|77[1][0]|77ab|77bc)", "electric", "LIGHT", 0).
emissionMap("(53cd|53[0]|53[1][0])", "(53[1][1][0]|77[1][0]|77ab|77bc|77cd)", "electric", "LIGHT", 0).
emissionMap("(53cd|53[0]|53[1][0])", "(53[1][1][0])", "electric", "LIGHT", 0).
emissionMap("(53cd|53[0]|53[1][0])", "None", "electric", "LIGHT", 0).
emissionMap("(53cd|53[0]|53[1][0]|53[1][1][0])", "(77[1][0])", "electric", "LIGHT", 0).
emissionMap("(53cd|53[0]|53[1][0]|53[1][1][0])", "(77[1][0]|77ab)", "electric", "LIGHT", 0).
emissionMap("(53cd|53[0]|53[1][0]|53[1][1][0])", "(77[1][0]|77ab|77bc)", "electric", "LIGHT", 0).
emissionMap("(53cd|53[0]|53[1][0]|53[1][1][0])", "(77[1][0]|77ab|77bc|77cd)", "electric", "LIGHT", 0).
emissionMap("(53cd|53[0]|53[1][0]|53[1][1][0])", "None", "electric", "LIGHT", 0).
emissionMap("(53[1][0]|53[1][1][0]|77[1][0])", "77[1][1]", "electric", "LIGHT", 0).
emissionMap("(53[1][0]|53[1][1][0]|77[1][0])", "(77ab)", "electric", "LIGHT", 0).
emissionMap("(53[1][0]|53[1][1][0]|77[1][0])", "(77ab|77bc)", "electric", "LIGHT", 0).
emissionMap("(53[1][0]|53[1][1][0]|77[1][0])", "(77ab|77bc|77cd|53cd)", "electric", "LIGHT", 0).
emissionMap("(53[1][0]|53[1][1][0]|77[1][0])", "(77ab|77bc|77cd)", "electric", "LIGHT", 0).
emissionMap("(53[1][0]|53[1][1][0]|77[1][0])", "(77ab|77bc|77cd|53cd|53[0])", "electric", "LIGHT", 0).
emissionMap("(53[1][0]|53[1][1][0]|77[1][0])", "None", "electric", "LIGHT", 0).
emissionMap("(53[1][0]|53[1][1][0]|77[1][0]|77ab)", "(77bc)", "electric", "LIGHT", 0).
emissionMap("(53[1][0]|53[1][1][0]|77[1][0]|77ab)", "(77bc|77cd|53cd)", "electric", "LIGHT", 0).
emissionMap("(53[1][0]|53[1][1][0]|77[1][0]|77ab)", "(77bc|77cd)", "electric", "LIGHT", 0).
emissionMap("(53[1][0]|53[1][1][0]|77[1][0]|77ab)", "(77bc|77cd|53cd|53[0])", "electric", "LIGHT", 0).
emissionMap("(53[1][0]|53[1][1][0]|77[1][0]|77ab)", "None", "electric", "LIGHT", 0).
emissionMap("(53[1][0]|53[1][1][0]|77[1][0]|77ab|77bc)", "21a", "electric", "LIGHT", 0).
emissionMap("(53[1][0]|53[1][1][0]|77[1][0]|77ab|77bc)", "(77cd|53cd)", "electric", "LIGHT", 0).
emissionMap("(53[1][0]|53[1][1][0]|77[1][0]|77ab|77bc)", "(77cd)", "electric", "LIGHT", 0).
emissionMap("(53[1][0]|53[1][1][0]|77[1][0]|77ab|77bc)", "(77cd|53cd|53[0])", "electric", "LIGHT", 0).
emissionMap("(53[1][0]|53[1][1][0]|77[1][0]|77ab|77bc)", "None", "electric", "LIGHT", 0).
emissionMap("(53[1][0]|53[1][1][0]|77[1][0]|77ab|77bc|77cd|53cd)", "82", "electric", "LIGHT", 0).
emissionMap("(53[1][0]|53[1][1][0]|77[1][0]|77ab|77bc|77cd|53cd)", "(53[0])", "electric", "LIGHT", 0).
emissionMap("(53[1][0]|53[1][1][0]|77[1][0]|77ab|77bc|77cd|53cd)", "None", "electric", "LIGHT", 0).
emissionMap("(53[1][0]|53[1][1][0]|77[1][0]|77ab|77bc|77cd)", "(53cd)", "electric", "LIGHT", 0).
emissionMap("(53[1][0]|53[1][1][0]|77[1][0]|77ab|77bc|77cd)", "(53cd|53[0])", "electric", "LIGHT", 0).
emissionMap("(53[1][0]|53[1][1][0]|77[1][0]|77ab|77bc|77cd)", "None", "electric", "LIGHT", 0).
emissionMap("(53[1][0])", "79", "electric", "LIGHT", 0).
emissionMap("(53[1][0])", "(53[1][1][0]|77[1][0])", "electric", "LIGHT", 0).
emissionMap("(53[1][0])", "(53[1][1][0]|77[1][0]|77ab)", "electric", "LIGHT", 0).
emissionMap("(53[1][0])", "(53[1][1][0]|77[1][0]|77ab|77bc)", "electric", "LIGHT", 0).
emissionMap("(53[1][0])", "(53[1][1][0]|77[1][0]|77ab|77bc|77cd|53cd)", "electric", "LIGHT", 0).
emissionMap("(53[1][0])", "(53[1][1][0]|77[1][0]|77ab|77bc|77cd)", "electric", "LIGHT", 0).
emissionMap("(53[1][0])", "(53[1][1][0]|77[1][0]|77ab|77bc|77cd|53cd|53[0])", "electric", "LIGHT", 0).
emissionMap("(53[1][0])", "(53[1][1][0])", "electric", "LIGHT", 0).
emissionMap("(53[1][0])", "None", "electric", "LIGHT", 0).
emissionMap("(53[1][0]|53[1][1][0])", "(77[1][0])", "electric", "LIGHT", 0).
emissionMap("(53[1][0]|53[1][1][0])", "(77[1][0]|77ab)", "electric", "LIGHT", 0).
emissionMap("(53[1][0]|53[1][1][0])", "(77[1][0]|77ab|77bc)", "electric", "LIGHT", 0).
emissionMap("(53[1][0]|53[1][1][0])", "(77[1][0]|77ab|77bc|77cd|53cd)", "electric", "LIGHT", 0).
emissionMap("(53[1][0]|53[1][1][0])", "(77[1][0]|77ab|77bc|77cd)", "electric", "LIGHT", 0).
emissionMap("(53[1][0]|53[1][1][0])", "(77[1][0]|77ab|77bc|77cd|53cd|53[0])", "electric", "LIGHT", 0).
emissionMap("(53[1][0]|53[1][1][0])", "None", "electric", "LIGHT", 0).
emissionMap("(53[1][1][0]|77[1][0])", "77[1][1]", "electric", "LIGHT", 0).
emissionMap("(53[1][1][0]|77[1][0])", "(77ab)", "electric", "LIGHT", 0).
emissionMap("(53[1][1][0]|77[1][0])", "(77ab|77bc)", "electric", "LIGHT", 0).
emissionMap("(53[1][1][0]|77[1][0])", "(77ab|77bc|77cd|53cd)", "electric", "LIGHT", 0).
emissionMap("(53[1][1][0]|77[1][0])", "(77ab|77bc|77cd)", "electric", "LIGHT", 0).
emissionMap("(53[1][1][0]|77[1][0])", "(77ab|77bc|77cd|53cd|53[0])", "electric", "LIGHT", 0).
emissionMap("(53[1][1][0]|77[1][0])", "(77ab|77bc|77cd|53cd|53[0]|53[1][0])", "electric", "LIGHT", 0).
emissionMap("(53[1][1][0]|77[1][0])", "None", "electric", "LIGHT", 0).
emissionMap("(53[1][1][0]|77[1][0]|77ab)", "(77bc)", "electric", "LIGHT", 0).
emissionMap("(53[1][1][0]|77[1][0]|77ab)", "(77bc|77cd|53cd)", "electric", "LIGHT", 0).
emissionMap("(53[1][1][0]|77[1][0]|77ab)", "(77bc|77cd)", "electric", "LIGHT", 0).
emissionMap("(53[1][1][0]|77[1][0]|77ab)", "(77bc|77cd|53cd|53[0])", "electric", "LIGHT", 0).
emissionMap("(53[1][1][0]|77[1][0]|77ab)", "(77bc|77cd|53cd|53[0]|53[1][0])", "electric", "LIGHT", 0).
emissionMap("(53[1][1][0]|77[1][0]|77ab)", "None", "electric", "LIGHT", 0).
emissionMap("(53[1][1][0]|77[1][0]|77ab|77bc)", "21a", "electric", "LIGHT", 0).
emissionMap("(53[1][1][0]|77[1][0]|77ab|77bc)", "(77cd|53cd)", "electric", "LIGHT", 0).
emissionMap("(53[1][1][0]|77[1][0]|77ab|77bc)", "(77cd)", "electric", "LIGHT", 0).
emissionMap("(53[1][1][0]|77[1][0]|77ab|77bc)", "(77cd|53cd|53[0])", "electric", "LIGHT", 0).
emissionMap("(53[1][1][0]|77[1][0]|77ab|77bc)", "(77cd|53cd|53[0]|53[1][0])", "electric", "LIGHT", 0).
emissionMap("(53[1][1][0]|77[1][0]|77ab|77bc)", "None", "electric", "LIGHT", 0).
emissionMap("(53[1][1][0]|77[1][0]|77ab|77bc|77cd|53cd)", "82", "electric", "LIGHT", 0).
emissionMap("(53[1][1][0]|77[1][0]|77ab|77bc|77cd|53cd)", "(53[0])", "electric", "LIGHT", 0).
emissionMap("(53[1][1][0]|77[1][0]|77ab|77bc|77cd|53cd)", "(53[0]|53[1][0])", "electric", "LIGHT", 0).
emissionMap("(53[1][1][0]|77[1][0]|77ab|77bc|77cd|53cd)", "None", "electric", "LIGHT", 0).
emissionMap("(53[1][1][0]|77[1][0]|77ab|77bc|77cd)", "(53cd)", "electric", "LIGHT", 0).
emissionMap("(53[1][1][0]|77[1][0]|77ab|77bc|77cd)", "(53cd|53[0])", "electric", "LIGHT", 0).
emissionMap("(53[1][1][0]|77[1][0]|77ab|77bc|77cd)", "(53cd|53[0]|53[1][0])", "electric", "LIGHT", 0).
emissionMap("(53[1][1][0]|77[1][0]|77ab|77bc|77cd)", "None", "electric", "LIGHT", 0).
emissionMap("(53[1][1][0]|77[1][0]|77ab|77bc|77cd|53cd|53[0])", "78[1][1]", "electric", "LIGHT", 0).
emissionMap("(53[1][1][0]|77[1][0]|77ab|77bc|77cd|53cd|53[0])", "(53[1][0])", "electric", "LIGHT", 0).
emissionMap("(53[1][1][0]|77[1][0]|77ab|77bc|77cd|53cd|53[0])", "None", "electric", "LIGHT", 0).
emissionMap("(53[1][1][0])", "(77[1][0])", "electric", "LIGHT", 0).
emissionMap("(53[1][1][0])", "(77[1][0]|77ab)", "electric", "LIGHT", 0).
emissionMap("(53[1][1][0])", "(77[1][0]|77ab|77bc)", "electric", "LIGHT", 0).
emissionMap("(53[1][1][0])", "(77[1][0]|77ab|77bc|77cd|53cd)", "electric", "LIGHT", 0).
emissionMap("(53[1][1][0])", "(77[1][0]|77ab|77bc|77cd)", "electric", "LIGHT", 0).
emissionMap("(53[1][1][0])", "(77[1][0]|77ab|77bc|77cd|53cd|53[0])", "electric", "LIGHT", 0).
emissionMap("(53[1][1][0])", "(77[1][0]|77ab|77bc|77cd|53cd|53[0]|53[1][0])", "electric", "LIGHT", 0).
emissionMap("(53[1][1][0])", "None", "electric", "LIGHT", 0).
emissionMap("(77[1][0])", "77[1][1]", "electric", "LIGHT", 0).
emissionMap("(77[1][0])", "(77ab)", "electric", "LIGHT", 0).
emissionMap("(77[1][0])", "(77ab|77bc)", "electric", "LIGHT", 0).
emissionMap("(77[1][0])", "(77ab|77bc|77cd|53cd)", "electric", "LIGHT", 0).
emissionMap("(77[1][0])", "(77ab|77bc|77cd)", "electric", "LIGHT", 0).
emissionMap("(77[1][0])", "(77ab|77bc|77cd|53cd|53[0])", "electric", "LIGHT", 0).
emissionMap("(77[1][0])", "(77ab|77bc|77cd|53cd|53[0]|53[1][0])", "electric", "LIGHT", 0).
emissionMap("(77[1][0])", "(77ab|77bc|77cd|53cd|53[0]|53[1][0]|53[1][1][0])", "electric", "LIGHT", 0).
emissionMap("(77[1][0])", "None", "electric", "LIGHT", 0).
emissionMap("(77[1][0]|77ab)", "(77bc)", "electric", "LIGHT", 0).
emissionMap("(77[1][0]|77ab)", "(77bc|77cd|53cd)", "electric", "LIGHT", 0).
emissionMap("(77[1][0]|77ab)", "(77bc|77cd)", "electric", "LIGHT", 0).
emissionMap("(77[1][0]|77ab)", "(77bc|77cd|53cd|53[0])", "electric", "LIGHT", 0).
emissionMap("(77[1][0]|77ab)", "(77bc|77cd|53cd|53[0]|53[1][0])", "electric", "LIGHT", 0).
emissionMap("(77[1][0]|77ab)", "(77bc|77cd|53cd|53[0]|53[1][0]|53[1][1][0])", "electric", "LIGHT", 0).
emissionMap("(77[1][0]|77ab)", "None", "electric", "LIGHT", 0).
emissionMap("(77[1][0]|77ab|77bc)", "21a", "electric", "LIGHT", 0).
emissionMap("(77[1][0]|77ab|77bc)", "(77cd|53cd)", "electric", "LIGHT", 0).
emissionMap("(77[1][0]|77ab|77bc)", "(77cd)", "electric", "LIGHT", 0).
emissionMap("(77[1][0]|77ab|77bc)", "(77cd|53cd|53[0])", "electric", "LIGHT", 0).
emissionMap("(77[1][0]|77ab|77bc)", "(77cd|53cd|53[0]|53[1][0])", "electric", "LIGHT", 0).
emissionMap("(77[1][0]|77ab|77bc)", "(77cd|53cd|53[0]|53[1][0]|53[1][1][0])", "electric", "LIGHT", 0).
emissionMap("(77[1][0]|77ab|77bc)", "None", "electric", "LIGHT", 0).
emissionMap("(77[1][0]|77ab|77bc|77cd|53cd)", "82", "electric", "LIGHT", 0).
emissionMap("(77[1][0]|77ab|77bc|77cd|53cd)", "(53[0])", "electric", "LIGHT", 0).
emissionMap("(77[1][0]|77ab|77bc|77cd|53cd)", "(53[0]|53[1][0])", "electric", "LIGHT", 0).
emissionMap("(77[1][0]|77ab|77bc|77cd|53cd)", "(53[0]|53[1][0]|53[1][1][0])", "electric", "LIGHT", 0).
emissionMap("(77[1][0]|77ab|77bc|77cd|53cd)", "None", "electric", "LIGHT", 0).
emissionMap("(77[1][0]|77ab|77bc|77cd)", "(53cd)", "electric", "LIGHT", 0).
emissionMap("(77[1][0]|77ab|77bc|77cd)", "(53cd|53[0])", "electric", "LIGHT", 0).
emissionMap("(77[1][0]|77ab|77bc|77cd)", "(53cd|53[0]|53[1][0])", "electric", "LIGHT", 0).
emissionMap("(77[1][0]|77ab|77bc|77cd)", "(53cd|53[0]|53[1][0]|53[1][1][0])", "electric", "LIGHT", 0).
emissionMap("(77[1][0]|77ab|77bc|77cd)", "None", "electric", "LIGHT", 0).
emissionMap("(77[1][0]|77ab|77bc|77cd|53cd|53[0])", "78[1][1]", "electric", "LIGHT", 0).
emissionMap("(77[1][0]|77ab|77bc|77cd|53cd|53[0])", "(53[1][0])", "electric", "LIGHT", 0).
emissionMap("(77[1][0]|77ab|77bc|77cd|53cd|53[0])", "(53[1][0]|53[1][1][0])", "electric", "LIGHT", 0).
emissionMap("(77[1][0]|77ab|77bc|77cd|53cd|53[0])", "None", "electric", "LIGHT", 0).
emissionMap("(77[1][0]|77ab|77bc|77cd|53cd|53[0]|53[1][0])", "79", "electric", "LIGHT", 0).
emissionMap("(77[1][0]|77ab|77bc|77cd|53cd|53[0]|53[1][0])", "(53[1][1][0])", "electric", "LIGHT", 0).
emissionMap("(77[1][0]|77ab|77bc|77cd|53cd|53[0]|53[1][0])", "None", "electric", "LIGHT", 0).
emissionMap("1", "204a[0]", "electric", "HEAVY", 0).
emissionMap("1", "None", "electric", "HEAVY", 0).
emissionMap("10", "[13|104]", "electric", "HEAVY", 0).
emissionMap("10", "None", "electric", "HEAVY", 0).
emissionMap("103", "14", "electric", "HEAVY", 0).
emissionMap("103", "16", "electric", "HEAVY", 0).
emissionMap("103", "49", "electric", "HEAVY", 0).
emissionMap("103", "None", "electric", "HEAVY", 0).
emissionMap("104", "16", "electric", "HEAVY", 0).
emissionMap("104", "24", "electric", "HEAVY", 0).
emissionMap("104", "49", "electric", "HEAVY", 0).
emissionMap("104", "None", "electric", "HEAVY", 0).
emissionMap("109[0]", "109[1][0]+20003", "electric", "HEAVY", 0).
emissionMap("109[0]", "None", "electric", "HEAVY", 0).
emissionMap("109[1][0]+20003", "109[1][1]", "electric", "HEAVY", 0).
emissionMap("109[1][0]+20003", "None", "electric", "HEAVY", 0).
emissionMap("109[1][1]", "120", "electric", "HEAVY", 0).
emissionMap("109[1][1]", "[116|46]", "electric", "HEAVY", 0).
emissionMap("109[1][1]", "None", "electric", "HEAVY", 0).
emissionMap("11", "72[0]", "electric", "HEAVY", 0).
emissionMap("11", "84", "electric", "HEAVY", 0).
emissionMap("11", "86", "electric", "HEAVY", 0).
emissionMap("11", "None", "electric", "HEAVY", 0).
emissionMap("113", "118", "electric", "HEAVY", 0).
emissionMap("113", "209", "electric", "HEAVY", 0).
emissionMap("113", "None", "electric", "HEAVY", 0).
emissionMap("114", "None", "electric", "HEAVY", 0).
emissionMap("116", "46", "electric", "HEAVY", 0).
emissionMap("116", "None", "electric", "HEAVY", 0).
emissionMap("117", "209", "electric", "HEAVY", 0).
emissionMap("117", "None", "electric", "HEAVY", 0).
emissionMap("118", "119", "electric", "HEAVY", 0).
emissionMap("118", "65", "electric", "HEAVY", 0).
emissionMap("118", "None", "electric", "HEAVY", 0).
emissionMap("119", "[116|46]", "electric", "HEAVY", 0).
emissionMap("119", "None", "electric", "HEAVY", 0).
emissionMap("12", "67", "electric", "HEAVY", 0).
emissionMap("12", "86", "electric", "HEAVY", 0).
emissionMap("12", "None", "electric", "HEAVY", 0).
emissionMap("120", "117", "electric", "HEAVY", 0).
emissionMap("120", "65", "electric", "HEAVY", 0).
emissionMap("120", "None", "electric", "HEAVY", 0).
emissionMap("122", "1b", "electric", "HEAVY", 0).
emissionMap("122", "[3|2]", "electric", "HEAVY", 0).
emissionMap("122", "None", "electric", "HEAVY", 0).
emissionMap("124", "None", "electric", "HEAVY", 0).
emissionMap("127", "(77[1][0])", "electric", "HEAVY", 0).
emissionMap("127", "(77[1][0]|77ab)", "electric", "HEAVY", 0).
emissionMap("127", "(77[1][0]|77ab|77bc)", "electric", "HEAVY", 0).
emissionMap("127", "(77[1][0]|77ab|77bc|77cd|53cd)", "electric", "HEAVY", 0).
emissionMap("127", "(77[1][0]|77ab|77bc|77cd)", "electric", "HEAVY", 0).
emissionMap("127", "(77[1][0]|77ab|77bc|77cd|53cd|53[0])", "electric", "HEAVY", 0).
emissionMap("127", "(77[1][0]|77ab|77bc|77cd|53cd|53[0]|53[1][0])", "electric", "HEAVY", 0).
emissionMap("127", "None", "electric", "HEAVY", 0).
emissionMap("13", "104", "electric", "HEAVY", 0).
emissionMap("13", "None", "electric", "HEAVY", 0).
emissionMap("131", "117", "electric", "HEAVY", 0).
emissionMap("131", "119", "electric", "HEAVY", 0).
emissionMap("131", "65", "electric", "HEAVY", 0).
emissionMap("131", "None", "electric", "HEAVY", 0).
emissionMap("133", "31", "electric", "HEAVY", 0).
emissionMap("133", "None", "electric", "HEAVY", 0).
emissionMap("134", "[134b|133]", "electric", "HEAVY", 0).
emissionMap("134", "None", "electric", "HEAVY", 0).
emissionMap("134b", "133", "electric", "HEAVY", 0).
emissionMap("134b", "None", "electric", "HEAVY", 0).
emissionMap("135", "[181|18]", "electric", "HEAVY", 0).
emissionMap("135", "None", "electric", "HEAVY", 0).
emissionMap("136", "135", "electric", "HEAVY", 0).
emissionMap("136", "None", "electric", "HEAVY", 0).
emissionMap("137", "180", "electric", "HEAVY", 0).
emissionMap("137", "None", "electric", "HEAVY", 0).
emissionMap("138", "137", "electric", "HEAVY", 0).
emissionMap("138", "None", "electric", "HEAVY", 0).
emissionMap("14", "9", "electric", "HEAVY", 0).
emissionMap("14", "None", "electric", "HEAVY", 0).
emissionMap("15", "14", "electric", "HEAVY", 0).
emissionMap("15", "24", "electric", "HEAVY", 0).
emissionMap("15", "49", "electric", "HEAVY", 0).
emissionMap("15", "None", "electric", "HEAVY", 0).
emissionMap("153", "[87[0]|20001+87[1][0]|87[1][1]]", "electric", "HEAVY", 0).
emissionMap("153", "None", "electric", "HEAVY", 0).
emissionMap("159", "42", "electric", "HEAVY", 0).
emissionMap("159", "None", "electric", "HEAVY", 0).
emissionMap("16", "37", "electric", "HEAVY", 0).
emissionMap("16", "None", "electric", "HEAVY", 0).
emissionMap("160", "61", "electric", "HEAVY", 0).
emissionMap("160", "None", "electric", "HEAVY", 0).
emissionMap("161", "122", "electric", "HEAVY", 0).
emissionMap("161", "194", "electric", "HEAVY", 0).
emissionMap("161", "None", "electric", "HEAVY", 0).
emissionMap("165", "166", "electric", "HEAVY", 0).
emissionMap("165", "31", "electric", "HEAVY", 0).
emissionMap("165", "[134b|133]", "electric", "HEAVY", 0).
emissionMap("165", "None", "electric", "HEAVY", 0).
emissionMap("166", "None", "electric", "HEAVY", 0).
emissionMap("17", "71", "electric", "HEAVY", 0).
emissionMap("17", "None", "electric", "HEAVY", 0).
emissionMap("171", "161", "electric", "HEAVY", 0).
emissionMap("171", "None", "electric", "HEAVY", 0).
emissionMap("173", "58[0]", "electric", "HEAVY", 0).
emissionMap("173", "62", "electric", "HEAVY", 0).
emissionMap("173", "None", "electric", "HEAVY", 0).
emissionMap("18", "69", "electric", "HEAVY", 0).
emissionMap("18", "[17|71]", "electric", "HEAVY", 0).
emissionMap("18", "None", "electric", "HEAVY", 0).
emissionMap("180", "[136|135]", "electric", "HEAVY", 0).
emissionMap("180", "[181|18]", "electric", "HEAVY", 0).
emissionMap("180", "None", "electric", "HEAVY", 0).
emissionMap("181", "18", "electric", "HEAVY", 0).
emissionMap("181", "None", "electric", "HEAVY", 0).
emissionMap("186", "[109[0]|109[1][0]+20003|109[1][1]]", "electric", "HEAVY", 0).
emissionMap("186", "None", "electric", "HEAVY", 0).
emissionMap("188", "[87[0]|20001+87[1][0]|87[1][1]]", "electric", "HEAVY", 0).
emissionMap("188", "None", "electric", "HEAVY", 0).
emissionMap("189[0]", "189[1][0]+20000", "electric", "HEAVY", 0).
emissionMap("189[0]", "None", "electric", "HEAVY", 0).
emissionMap("189[1][0]+20000", "189[1][1]", "electric", "HEAVY", 0).
emissionMap("189[1][0]+20000", "None", "electric", "HEAVY", 0).
emissionMap("189[1][1]", "188", "electric", "HEAVY", 0).
emissionMap("189[1][1]", "191", "electric", "HEAVY", 0).
emissionMap("189[1][1]", "None", "electric", "HEAVY", 0).
emissionMap("19", "103", "electric", "HEAVY", 0).
emissionMap("19", "[22|59]", "electric", "HEAVY", 0).
emissionMap("19", "None", "electric", "HEAVY", 0).
emissionMap("191", "69", "electric", "HEAVY", 0).
emissionMap("191", "[17|71]", "electric", "HEAVY", 0).
emissionMap("191", "None", "electric", "HEAVY", 0).
emissionMap("194", "91", "electric", "HEAVY", 0).
emissionMap("194", "None", "electric", "HEAVY", 0).
emissionMap("195", "159", "electric", "HEAVY", 0).
emissionMap("195", "61", "electric", "HEAVY", 0).
emissionMap("195", "None", "electric", "HEAVY", 0).
emissionMap("197", "[109[0]|109[1][0]+20003|109[1][1]]", "electric", "HEAVY", 0).
emissionMap("197", "None", "electric", "HEAVY", 0).
emissionMap("1b", "1", "electric", "HEAVY", 0).
emissionMap("1b", "None", "electric", "HEAVY", 0).
emissionMap("2", "4", "electric", "HEAVY", 0).
emissionMap("2", "[202|34]", "electric", "HEAVY", 0).
emissionMap("2", "None", "electric", "HEAVY", 0).
emissionMap("20", "219", "electric", "HEAVY", 0).
emissionMap("20", "None", "electric", "HEAVY", 0).
emissionMap("200", "60", "electric", "HEAVY", 0).
emissionMap("200", "None", "electric", "HEAVY", 0).
emissionMap("20001+87[1][0]", "87[1][1]", "electric", "HEAVY", 0).
emissionMap("20001+87[1][0]", "None", "electric", "HEAVY", 0).
emissionMap("20002+89[1][0]", "89[1][1]", "electric", "HEAVY", 0).
emissionMap("20002+89[1][0]", "None", "electric", "HEAVY", 0).
emissionMap("201", "201c", "electric", "HEAVY", 0).
emissionMap("201", "4c", "electric", "HEAVY", 0).
emissionMap("201", "None", "electric", "HEAVY", 0).
emissionMap("201c", "204a[0]", "electric", "HEAVY", 0).
emissionMap("201c", "None", "electric", "HEAVY", 0).
emissionMap("202", "34", "electric", "HEAVY", 0).
emissionMap("202", "None", "electric", "HEAVY", 0).
emissionMap("203[0]", "203[1]", "electric", "HEAVY", 0).
emissionMap("203[0]", "None", "electric", "HEAVY", 0).
emissionMap("203[1]", "203[1]b", "electric", "HEAVY", 0).
emissionMap("203[1]", "None", "electric", "HEAVY", 0).
emissionMap("203[1]b", "[202|34]", "electric", "HEAVY", 0).
emissionMap("203[1]b", "None", "electric", "HEAVY", 0).
emissionMap("204[1][0]", "204[1][1]", "electric", "HEAVY", 0).
emissionMap("204[1][0]", "None", "electric", "HEAVY", 0).
emissionMap("204[1][1]", "None", "electric", "HEAVY", 0).
emissionMap("204a[0]", "124", "electric", "HEAVY", 0).
emissionMap("204a[0]", "204b[0]", "electric", "HEAVY", 0).
emissionMap("204a[0]", "None", "electric", "HEAVY", 0).
emissionMap("204b[0]", "204[1][0]", "electric", "HEAVY", 0).
emissionMap("204b[0]", "54", "electric", "HEAVY", 0).
emissionMap("204b[0]", "None", "electric", "HEAVY", 0).
emissionMap("206", "30", "electric", "HEAVY", 0).
emissionMap("206", "32", "electric", "HEAVY", 0).
emissionMap("206", "None", "electric", "HEAVY", 0).
emissionMap("209", "None", "electric", "HEAVY", 0).
emissionMap("210", "43[0]", "electric", "HEAVY", 0).
emissionMap("210", "None", "electric", "HEAVY", 0).
emissionMap("211", "45", "electric", "HEAVY", 0).
emissionMap("211", "None", "electric", "HEAVY", 0).
emissionMap("212", "10", "electric", "HEAVY", 0).
emissionMap("212", "None", "electric", "HEAVY", 0).
emissionMap("218", "36", "electric", "HEAVY", 0).
emissionMap("218", "38", "electric", "HEAVY", 0).
emissionMap("218", "None", "electric", "HEAVY", 0).
emissionMap("219", "218", "electric", "HEAVY", 0).
emissionMap("219", "None", "electric", "HEAVY", 0).
emissionMap("21a", "21b", "electric", "HEAVY", 0).
emissionMap("21a", "None", "electric", "HEAVY", 0).
emissionMap("21b", "103", "electric", "HEAVY", 0).
emissionMap("21b", "20", "electric", "HEAVY", 0).
emissionMap("21b", "None", "electric", "HEAVY", 0).
emissionMap("22", "59", "electric", "HEAVY", 0).
emissionMap("22", "None", "electric", "HEAVY", 0).
emissionMap("220", "19", "electric", "HEAVY", 0).
emissionMap("220", "None", "electric", "HEAVY", 0).
emissionMap("220b", "218", "electric", "HEAVY", 0).
emissionMap("220b", "220", "electric", "HEAVY", 0).
emissionMap("220b", "None", "electric", "HEAVY", 0).
emissionMap("222", "None", "electric", "HEAVY", 0).
emissionMap("224[0]", "222", "electric", "HEAVY", 0).
emissionMap("224[0]", "224[1]", "electric", "HEAVY", 0).
emissionMap("224[0]", "None", "electric", "HEAVY", 0).
emissionMap("224[1]", "[136|135]", "electric", "HEAVY", 0).
emissionMap("224[1]", "[181|18]", "electric", "HEAVY", 0).
emissionMap("224[1]", "None", "electric", "HEAVY", 0).
emissionMap("24", "20", "electric", "HEAVY", 0).
emissionMap("24", "[22|59]", "electric", "HEAVY", 0).
emissionMap("24", "None", "electric", "HEAVY", 0).
emissionMap("25", "74", "electric", "HEAVY", 0).
emissionMap("25", "[68|11]", "electric", "HEAVY", 0).
emissionMap("25", "[80|127]", "electric", "HEAVY", 0).
emissionMap("25", "None", "electric", "HEAVY", 0).
emissionMap("26", "25", "electric", "HEAVY", 0).
emissionMap("26", "None", "electric", "HEAVY", 0).
emissionMap("28", "None", "electric", "HEAVY", 0).
emissionMap("3", "2", "electric", "HEAVY", 0).
emissionMap("3", "None", "electric", "HEAVY", 0).
emissionMap("30", "None", "electric", "HEAVY", 0).
emissionMap("31", "113", "electric", "HEAVY", 0).
emissionMap("31", "201", "electric", "HEAVY", 0).
emissionMap("31", "None", "electric", "HEAVY", 0).
emissionMap("32", "35", "electric", "HEAVY", 0).
emissionMap("32", "40", "electric", "HEAVY", 0).
emissionMap("32", "None", "electric", "HEAVY", 0).
emissionMap("33", "10", "electric", "HEAVY", 0).
emissionMap("33", "[211|45]", "electric", "HEAVY", 0).
emissionMap("33", "None", "electric", "HEAVY", 0).
emissionMap("34", "113", "electric", "HEAVY", 0).
emissionMap("34", "134", "electric", "HEAVY", 0).
emissionMap("34", "None", "electric", "HEAVY", 0).
emissionMap("35", "38", "electric", "HEAVY", 0).
emissionMap("35", "None", "electric", "HEAVY", 0).
emissionMap("36", "40", "electric", "HEAVY", 0).
emissionMap("36", "None", "electric", "HEAVY", 0).
emissionMap("37", "36", "electric", "HEAVY", 0).
emissionMap("37", "None", "electric", "HEAVY", 0).
emissionMap("38", "15", "electric", "HEAVY", 0).
emissionMap("38", "33", "electric", "HEAVY", 0).
emissionMap("38", "50", "electric", "HEAVY", 0).
emissionMap("38", "None", "electric", "HEAVY", 0).
emissionMap("39", "35", "electric", "HEAVY", 0).
emissionMap("39", "None", "electric", "HEAVY", 0).
emissionMap("4", "4c", "electric", "HEAVY", 0).
emissionMap("4", "None", "electric", "HEAVY", 0).
emissionMap("40", "153", "electric", "HEAVY", 0).
emissionMap("40", "41", "electric", "HEAVY", 0).
emissionMap("40", "93", "electric", "HEAVY", 0).
emissionMap("40", "None", "electric", "HEAVY", 0).
emissionMap("41", "160", "electric", "HEAVY", 0).
emissionMap("41", "None", "electric", "HEAVY", 0).
emissionMap("42", "153", "electric", "HEAVY", 0).
emissionMap("42", "39", "electric", "HEAVY", 0).
emissionMap("42", "None", "electric", "HEAVY", 0).
emissionMap("43[0]", "118", "electric", "HEAVY", 0).
emissionMap("43[0]", "43[1]", "electric", "HEAVY", 0).
emissionMap("43[0]", "None", "electric", "HEAVY", 0).
emissionMap("43[1]", "134", "electric", "HEAVY", 0).
emissionMap("43[1]", "201", "electric", "HEAVY", 0).
emissionMap("43[1]", "None", "electric", "HEAVY", 0).
emissionMap("44", "36", "electric", "HEAVY", 0).
emissionMap("44", "38", "electric", "HEAVY", 0).
emissionMap("44", "None", "electric", "HEAVY", 0).
emissionMap("45", "206", "electric", "HEAVY", 0).
emissionMap("45", "44", "electric", "HEAVY", 0).
emissionMap("45", "None", "electric", "HEAVY", 0).
emissionMap("46", "113", "electric", "HEAVY", 0).
emissionMap("46", "134", "electric", "HEAVY", 0).
emissionMap("46", "201", "electric", "HEAVY", 0).
emissionMap("46", "None", "electric", "HEAVY", 0).
emissionMap("48", "160", "electric", "HEAVY", 0).
emissionMap("48", "42", "electric", "HEAVY", 0).
emissionMap("48", "None", "electric", "HEAVY", 0).
emissionMap("49", "None", "electric", "HEAVY", 0).
emissionMap("4c", "None", "electric", "HEAVY", 0).
emissionMap("50", "19", "electric", "HEAVY", 0).
emissionMap("50", "219", "electric", "HEAVY", 0).
emissionMap("50", "None", "electric", "HEAVY", 0).
emissionMap("51", "19", "electric", "HEAVY", 0).
emissionMap("51", "219", "electric", "HEAVY", 0).
emissionMap("51", "None", "electric", "HEAVY", 0).
emissionMap("53[0]", "78[1][1]", "electric", "HEAVY", 0).
emissionMap("53[0]", "(53[1][0]|53[1][1][0]|77[1][0])", "electric", "HEAVY", 0).
emissionMap("53[0]", "(53[1][0]|53[1][1][0]|77[1][0]|77ab)", "electric", "HEAVY", 0).
emissionMap("53[0]", "(53[1][0]|53[1][1][0]|77[1][0]|77ab|77bc)", "electric", "HEAVY", 0).
emissionMap("53[0]", "(53[1][0]|53[1][1][0]|77[1][0]|77ab|77bc|77cd|53cd)", "electric", "HEAVY", 0).
emissionMap("53[0]", "(53[1][0]|53[1][1][0]|77[1][0]|77ab|77bc|77cd)", "electric", "HEAVY", 0).
emissionMap("53[0]", "(53[1][0])", "electric", "HEAVY", 0).
emissionMap("53[0]", "(53[1][0]|53[1][1][0])", "electric", "HEAVY", 0).
emissionMap("53[0]", "None", "electric", "HEAVY", 0).
emissionMap("53[1][0]", "79", "electric", "HEAVY", 0).
emissionMap("53[1][0]", "(53[1][1][0]|77[1][0])", "electric", "HEAVY", 0).
emissionMap("53[1][0]", "(53[1][1][0]|77[1][0]|77ab)", "electric", "HEAVY", 0).
emissionMap("53[1][0]", "(53[1][1][0]|77[1][0]|77ab|77bc)", "electric", "HEAVY", 0).
emissionMap("53[1][0]", "(53[1][1][0]|77[1][0]|77ab|77bc|77cd|53cd)", "electric", "HEAVY", 0).
emissionMap("53[1][0]", "(53[1][1][0]|77[1][0]|77ab|77bc|77cd)", "electric", "HEAVY", 0).
emissionMap("53[1][0]", "(53[1][1][0]|77[1][0]|77ab|77bc|77cd|53cd|53[0])", "electric", "HEAVY", 0).
emissionMap("53[1][0]", "(53[1][1][0])", "electric", "HEAVY", 0).
emissionMap("53[1][0]", "None", "electric", "HEAVY", 0).
emissionMap("53[1][1][0]", "(77[1][0])", "electric", "HEAVY", 0).
emissionMap("53[1][1][0]", "(77[1][0]|77ab)", "electric", "HEAVY", 0).
emissionMap("53[1][1][0]", "(77[1][0]|77ab|77bc)", "electric", "HEAVY", 0).
emissionMap("53[1][1][0]", "(77[1][0]|77ab|77bc|77cd|53cd)", "electric", "HEAVY", 0).
emissionMap("53[1][1][0]", "(77[1][0]|77ab|77bc|77cd)", "electric", "HEAVY", 0).
emissionMap("53[1][1][0]", "(77[1][0]|77ab|77bc|77cd|53cd|53[0])", "electric", "HEAVY", 0).
emissionMap("53[1][1][0]", "(77[1][0]|77ab|77bc|77cd|53cd|53[0]|53[1][0])", "electric", "HEAVY", 0).
emissionMap("53[1][1][0]", "None", "electric", "HEAVY", 0).
emissionMap("53cd", "82", "electric", "HEAVY", 0).
emissionMap("53cd", "(53[0]|53[1][0]|53[1][1][0]|77[1][0])", "electric", "HEAVY", 0).
emissionMap("53cd", "(53[0]|53[1][0]|53[1][1][0]|77[1][0]|77ab)", "electric", "HEAVY", 0).
emissionMap("53cd", "(53[0]|53[1][0]|53[1][1][0]|77[1][0]|77ab|77bc)", "electric", "HEAVY", 0).
emissionMap("53cd", "(53[0]|53[1][0]|53[1][1][0]|77[1][0]|77ab|77bc|77cd)", "electric", "HEAVY", 0).
emissionMap("53cd", "(53[0])", "electric", "HEAVY", 0).
emissionMap("53cd", "(53[0]|53[1][0])", "electric", "HEAVY", 0).
emissionMap("53cd", "(53[0]|53[1][0]|53[1][1][0])", "electric", "HEAVY", 0).
emissionMap("53cd", "None", "electric", "HEAVY", 0).
emissionMap("54", "None", "electric", "HEAVY", 0).
emissionMap("56a", "56b", "electric", "HEAVY", 0).
emissionMap("56a", "m1", "electric", "HEAVY", 0).
emissionMap("56a", "None", "electric", "HEAVY", 0).
emissionMap("56b", "(77bc|77cd|53cd|53[0]|53[1][0]|53[1][1][0]|77[1][0])", "electric", "HEAVY", 0).
emissionMap("56b", "(77bc)", "electric", "HEAVY", 0).
emissionMap("56b", "(77bc|77cd|53cd)", "electric", "HEAVY", 0).
emissionMap("56b", "(77bc|77cd)", "electric", "HEAVY", 0).
emissionMap("56b", "(77bc|77cd|53cd|53[0])", "electric", "HEAVY", 0).
emissionMap("56b", "(77bc|77cd|53cd|53[0]|53[1][0])", "electric", "HEAVY", 0).
emissionMap("56b", "(77bc|77cd|53cd|53[0]|53[1][0]|53[1][1][0])", "electric", "HEAVY", 0).
emissionMap("56b", "None", "electric", "HEAVY", 0).
emissionMap("57[0]", "57[1]", "electric", "HEAVY", 0).
emissionMap("57[0]", "None", "electric", "HEAVY", 0).
emissionMap("57[1]", "62", "electric", "HEAVY", 0).
emissionMap("57[1]", "None", "electric", "HEAVY", 0).
emissionMap("58[0]", "58[1]", "electric", "HEAVY", 0).
emissionMap("58[0]", "None", "electric", "HEAVY", 0).
emissionMap("58[1]", "197", "electric", "HEAVY", 0).
emissionMap("58[1]", "66", "electric", "HEAVY", 0).
emissionMap("58[1]", "[200|60]", "electric", "HEAVY", 0).
emissionMap("58[1]", "None", "electric", "HEAVY", 0).
emissionMap("59", "(53cd|53[0]|53[1][0]|53[1][1][0]|77[1][0])", "electric", "HEAVY", 0).
emissionMap("59", "(53cd|53[0]|53[1][0]|53[1][1][0]|77[1][0]|77ab)", "electric", "HEAVY", 0).
emissionMap("59", "(53cd|53[0]|53[1][0]|53[1][1][0]|77[1][0]|77ab|77bc)", "electric", "HEAVY", 0).
emissionMap("59", "(53cd)", "electric", "HEAVY", 0).
emissionMap("59", "(53cd|53[0])", "electric", "HEAVY", 0).
emissionMap("59", "(53cd|53[0]|53[1][0])", "electric", "HEAVY", 0).
emissionMap("59", "(53cd|53[0]|53[1][0]|53[1][1][0])", "electric", "HEAVY", 0).
emissionMap("59", "None", "electric", "HEAVY", 0).
emissionMap("60", "None", "electric", "HEAVY", 0).
emissionMap("61", "58[0]", "electric", "HEAVY", 0).
emissionMap("61", "None", "electric", "HEAVY", 0).
emissionMap("62", "159", "electric", "HEAVY", 0).
emissionMap("62", "None", "electric", "HEAVY", 0).
emissionMap("65", "197", "electric", "HEAVY", 0).
emissionMap("65", "57[0]", "electric", "HEAVY", 0).
emissionMap("65", "[200|60]", "electric", "HEAVY", 0).
emissionMap("65", "None", "electric", "HEAVY", 0).
emissionMap("66", "117", "electric", "HEAVY", 0).
emissionMap("66", "119", "electric", "HEAVY", 0).
emissionMap("66", "None", "electric", "HEAVY", 0).
emissionMap("67", "[80|127]", "electric", "HEAVY", 0).
emissionMap("67", "[26|25]", "electric", "HEAVY", 0).
emissionMap("67", "None", "electric", "HEAVY", 0).
emissionMap("68", "11", "electric", "HEAVY", 0).
emissionMap("68", "None", "electric", "HEAVY", 0).
emissionMap("69", "161", "electric", "HEAVY", 0).
emissionMap("69", "None", "electric", "HEAVY", 0).
emissionMap("71", "67", "electric", "HEAVY", 0).
emissionMap("71", "84", "electric", "HEAVY", 0).
emissionMap("71", "86", "electric", "HEAVY", 0).
emissionMap("71", "None", "electric", "HEAVY", 0).
emissionMap("72[0]", "72[1]", "electric", "HEAVY", 0).
emissionMap("72[0]", "None", "electric", "HEAVY", 0).
emissionMap("72[1]", "69", "electric", "HEAVY", 0).
emissionMap("72[1]", "None", "electric", "HEAVY", 0).
emissionMap("74", "72[1]", "electric", "HEAVY", 0).
emissionMap("74", "None", "electric", "HEAVY", 0).
emissionMap("75", "51", "electric", "HEAVY", 0).
emissionMap("75", "None", "electric", "HEAVY", 0).
emissionMap("77[1][0]", "77[1][1]", "electric", "HEAVY", 0).
emissionMap("77[1][0]", "(77ab)", "electric", "HEAVY", 0).
emissionMap("77[1][0]", "(77ab|77bc)", "electric", "HEAVY", 0).
emissionMap("77[1][0]", "(77ab|77bc|77cd|53cd)", "electric", "HEAVY", 0).
emissionMap("77[1][0]", "(77ab|77bc|77cd)", "electric", "HEAVY", 0).
emissionMap("77[1][0]", "(77ab|77bc|77cd|53cd|53[0])", "electric", "HEAVY", 0).
emissionMap("77[1][0]", "(77ab|77bc|77cd|53cd|53[0]|53[1][0])", "electric", "HEAVY", 0).
emissionMap("77[1][0]", "(77ab|77bc|77cd|53cd|53[0]|53[1][0]|53[1][1][0])", "electric", "HEAVY", 0).
emissionMap("77[1][0]", "None", "electric", "HEAVY", 0).
emissionMap("77[1][1]", "None", "electric", "HEAVY", 0).
emissionMap("77ab", "(77bc|77cd|53cd|53[0]|53[1][0]|53[1][1][0]|77[1][0])", "electric", "HEAVY", 0).
emissionMap("77ab", "(77bc)", "electric", "HEAVY", 0).
emissionMap("77ab", "(77bc|77cd|53cd)", "electric", "HEAVY", 0).
emissionMap("77ab", "(77bc|77cd)", "electric", "HEAVY", 0).
emissionMap("77ab", "(77bc|77cd|53cd|53[0])", "electric", "HEAVY", 0).
emissionMap("77ab", "(77bc|77cd|53cd|53[0]|53[1][0])", "electric", "HEAVY", 0).
emissionMap("77ab", "(77bc|77cd|53cd|53[0]|53[1][0]|53[1][1][0])", "electric", "HEAVY", 0).
emissionMap("77ab", "None", "electric", "HEAVY", 0).
emissionMap("77bc", "21a", "electric", "HEAVY", 0).
emissionMap("77bc", "(77cd|53cd|53[0]|53[1][0]|53[1][1][0]|77[1][0])", "electric", "HEAVY", 0).
emissionMap("77bc", "(77cd|53cd|53[0]|53[1][0]|53[1][1][0]|77[1][0]|77ab)", "electric", "HEAVY", 0).
emissionMap("77bc", "(77cd|53cd)", "electric", "HEAVY", 0).
emissionMap("77bc", "(77cd)", "electric", "HEAVY", 0).
emissionMap("77bc", "(77cd|53cd|53[0])", "electric", "HEAVY", 0).
emissionMap("77bc", "(77cd|53cd|53[0]|53[1][0])", "electric", "HEAVY", 0).
emissionMap("77bc", "(77cd|53cd|53[0]|53[1][0]|53[1][1][0])", "electric", "HEAVY", 0).
emissionMap("77bc", "None", "electric", "HEAVY", 0).
emissionMap("77cd", "(53cd|53[0]|53[1][0]|53[1][1][0]|77[1][0])", "electric", "HEAVY", 0).
emissionMap("77cd", "(53cd|53[0]|53[1][0]|53[1][1][0]|77[1][0]|77ab)", "electric", "HEAVY", 0).
emissionMap("77cd", "(53cd|53[0]|53[1][0]|53[1][1][0]|77[1][0]|77ab|77bc)", "electric", "HEAVY", 0).
emissionMap("77cd", "(53cd)", "electric", "HEAVY", 0).
emissionMap("77cd", "(53cd|53[0])", "electric", "HEAVY", 0).
emissionMap("77cd", "(53cd|53[0]|53[1][0])", "electric", "HEAVY", 0).
emissionMap("77cd", "(53cd|53[0]|53[1][0]|53[1][1][0])", "electric", "HEAVY", 0).
emissionMap("77cd", "None", "electric", "HEAVY", 0).
emissionMap("78[0]", "56a", "electric", "HEAVY", 0).
emissionMap("78[0]", "None", "electric", "HEAVY", 0).
emissionMap("78[1][1]", "75", "electric", "HEAVY", 0).
emissionMap("78[1][1]", "[189[0]|189[1][0]+20000|189[1][1]]", "electric", "HEAVY", 0).
emissionMap("78[1][1]", "None", "electric", "HEAVY", 0).
emissionMap("79", "74", "electric", "HEAVY", 0).
emissionMap("79", "[68|11]", "electric", "HEAVY", 0).
emissionMap("79", "[26|25]", "electric", "HEAVY", 0).
emissionMap("79", "None", "electric", "HEAVY", 0).
emissionMap("8", "9", "electric", "HEAVY", 0).
emissionMap("8", "[13|104]", "electric", "HEAVY", 0).
emissionMap("8", "None", "electric", "HEAVY", 0).
emissionMap("80", "127", "electric", "HEAVY", 0).
emissionMap("80", "None", "electric", "HEAVY", 0).
emissionMap("82", "51", "electric", "HEAVY", 0).
emissionMap("82", "None", "electric", "HEAVY", 0).
emissionMap("83", "12", "electric", "HEAVY", 0).
emissionMap("83", "None", "electric", "HEAVY", 0).
emissionMap("84", "180", "electric", "HEAVY", 0).
emissionMap("84", "[138|137]", "electric", "HEAVY", 0).
emissionMap("84", "None", "electric", "HEAVY", 0).
emissionMap("85", "67", "electric", "HEAVY", 0).
emissionMap("85", "72[0]", "electric", "HEAVY", 0).
emissionMap("85", "84", "electric", "HEAVY", 0).
emissionMap("85", "None", "electric", "HEAVY", 0).
emissionMap("86", "None", "electric", "HEAVY", 0).
emissionMap("87[0]", "20001+87[1][0]", "electric", "HEAVY", 0).
emissionMap("87[0]", "None", "electric", "HEAVY", 0).
emissionMap("87[1][1]", "97", "electric", "HEAVY", 0).
emissionMap("87[1][1]", "m90", "electric", "HEAVY", 0).
emissionMap("87[1][1]", "None", "electric", "HEAVY", 0).
emissionMap("89[0]", "20002+89[1][0]", "electric", "HEAVY", 0).
emissionMap("89[0]", "None", "electric", "HEAVY", 0).
emissionMap("89[1][1]", "91", "electric", "HEAVY", 0).
emissionMap("89[1][1]", "None", "electric", "HEAVY", 0).
emissionMap("9", "[211|45]", "electric", "HEAVY", 0).
emissionMap("9", "None", "electric", "HEAVY", 0).
emissionMap("91", "173", "electric", "HEAVY", 0).
emissionMap("91", "186", "electric", "HEAVY", 0).
emissionMap("91", "None", "electric", "HEAVY", 0).
emissionMap("93", "28", "electric", "HEAVY", 0).
emissionMap("93", "48", "electric", "HEAVY", 0).
emissionMap("93", "None", "electric", "HEAVY", 0).
emissionMap("97", "160", "electric", "HEAVY", 0).
emissionMap("97", "42", "electric", "HEAVY", 0).
emissionMap("97", "None", "electric", "HEAVY", 0).
emissionMap("m1", "21b", "electric", "HEAVY", 0).
emissionMap("m1", "None", "electric", "HEAVY", 0).
emissionMap("m2", "54", "electric", "HEAVY", 0).
emissionMap("m2", "None", "electric", "HEAVY", 0).
emissionMap("m90", "171", "electric", "HEAVY", 0).
emissionMap("m90", "[89[0]|20002+89[1][0]|89[1][1]]", "electric", "HEAVY", 0).
emissionMap("m90", "None", "electric", "HEAVY", 0).
emissionMap("[13|104]", "16", "electric", "HEAVY", 0).
emissionMap("[13|104]", "24", "electric", "HEAVY", 0).
emissionMap("[13|104]", "49", "electric", "HEAVY", 0).
emissionMap("[13|104]", "None", "electric", "HEAVY", 0).
emissionMap("[109[0]|109[1][0]+20003|109[1][1]]", "120", "electric", "HEAVY", 0).
emissionMap("[109[0]|109[1][0]+20003|109[1][1]]", "[116|46]", "electric", "HEAVY", 0).
emissionMap("[109[0]|109[1][0]+20003|109[1][1]]", "None", "electric", "HEAVY", 0).
emissionMap("[68|11]", "72[0]", "electric", "HEAVY", 0).
emissionMap("[68|11]", "84", "electric", "HEAVY", 0).
emissionMap("[68|11]", "86", "electric", "HEAVY", 0).
emissionMap("[68|11]", "None", "electric", "HEAVY", 0).
emissionMap("[116|46]", "113", "electric", "HEAVY", 0).
emissionMap("[116|46]", "134", "electric", "HEAVY", 0).
emissionMap("[116|46]", "201", "electric", "HEAVY", 0).
emissionMap("[116|46]", "None", "electric", "HEAVY", 0).
emissionMap("[83|12]", "67", "electric", "HEAVY", 0).
emissionMap("[83|12]", "86", "electric", "HEAVY", 0).
emissionMap("[83|12]", "None", "electric", "HEAVY", 0).
emissionMap("[80|127]", "(77[1][0])", "electric", "HEAVY", 0).
emissionMap("[80|127]", "(77[1][0]|77ab)", "electric", "HEAVY", 0).
emissionMap("[80|127]", "(77[1][0]|77ab|77bc)", "electric", "HEAVY", 0).
emissionMap("[80|127]", "(77[1][0]|77ab|77bc|77cd|53cd)", "electric", "HEAVY", 0).
emissionMap("[80|127]", "(77[1][0]|77ab|77bc|77cd)", "electric", "HEAVY", 0).
emissionMap("[80|127]", "(77[1][0]|77ab|77bc|77cd|53cd|53[0])", "electric", "HEAVY", 0).
emissionMap("[80|127]", "(77[1][0]|77ab|77bc|77cd|53cd|53[0]|53[1][0])", "electric", "HEAVY", 0).
emissionMap("[80|127]", "None", "electric", "HEAVY", 0).
emissionMap("[134b|133]", "31", "electric", "HEAVY", 0).
emissionMap("[134b|133]", "None", "electric", "HEAVY", 0).
emissionMap("[136|135]", "[181|18]", "electric", "HEAVY", 0).
emissionMap("[136|135]", "None", "electric", "HEAVY", 0).
emissionMap("[138|137]", "180", "electric", "HEAVY", 0).
emissionMap("[138|137]", "None", "electric", "HEAVY", 0).
emissionMap("[17|71]", "67", "electric", "HEAVY", 0).
emissionMap("[17|71]", "84", "electric", "HEAVY", 0).
emissionMap("[17|71]", "86", "electric", "HEAVY", 0).
emissionMap("[17|71]", "None", "electric", "HEAVY", 0).
emissionMap("[181|18]", "69", "electric", "HEAVY", 0).
emissionMap("[181|18]", "[17|71]", "electric", "HEAVY", 0).
emissionMap("[181|18]", "None", "electric", "HEAVY", 0).
emissionMap("[189[0]|189[1][0]+20000|189[1][1]]", "188", "electric", "HEAVY", 0).
emissionMap("[189[0]|189[1][0]+20000|189[1][1]]", "191", "electric", "HEAVY", 0).
emissionMap("[189[0]|189[1][0]+20000|189[1][1]]", "None", "electric", "HEAVY", 0).
emissionMap("[3|2]", "4", "electric", "HEAVY", 0).
emissionMap("[3|2]", "[202|34]", "electric", "HEAVY", 0).
emissionMap("[3|2]", "None", "electric", "HEAVY", 0).
emissionMap("[200|60]", "None", "electric", "HEAVY", 0).
emissionMap("[87[0]|20001+87[1][0]|87[1][1]]", "97", "electric", "HEAVY", 0).
emissionMap("[87[0]|20001+87[1][0]|87[1][1]]", "m90", "electric", "HEAVY", 0).
emissionMap("[87[0]|20001+87[1][0]|87[1][1]]", "None", "electric", "HEAVY", 0).
emissionMap("[89[0]|20002+89[1][0]|89[1][1]]", "91", "electric", "HEAVY", 0).
emissionMap("[89[0]|20002+89[1][0]|89[1][1]]", "None", "electric", "HEAVY", 0).
emissionMap("[202|34]", "113", "electric", "HEAVY", 0).
emissionMap("[202|34]", "134", "electric", "HEAVY", 0).
emissionMap("[202|34]", "None", "electric", "HEAVY", 0).
emissionMap("[210|43[0]]", "118", "electric", "HEAVY", 0).
emissionMap("[210|43[0]]", "43[1]", "electric", "HEAVY", 0).
emissionMap("[210|43[0]]", "None", "electric", "HEAVY", 0).
emissionMap("[211|45]", "206", "electric", "HEAVY", 0).
emissionMap("[211|45]", "44", "electric", "HEAVY", 0).
emissionMap("[211|45]", "None", "electric", "HEAVY", 0).
emissionMap("[22|59]", "(53cd|53[0]|53[1][0]|53[1][1][0]|77[1][0])", "electric", "HEAVY", 0).
emissionMap("[22|59]", "(53cd|53[0]|53[1][0]|53[1][1][0]|77[1][0]|77ab)", "electric", "HEAVY", 0).
emissionMap("[22|59]", "(53cd|53[0]|53[1][0]|53[1][1][0]|77[1][0]|77ab|77bc)", "electric", "HEAVY", 0).
emissionMap("[22|59]", "(53cd)", "electric", "HEAVY", 0).
emissionMap("[22|59]", "(53cd|53[0])", "electric", "HEAVY", 0).
emissionMap("[22|59]", "(53cd|53[0]|53[1][0])", "electric", "HEAVY", 0).
emissionMap("[22|59]", "(53cd|53[0]|53[1][0]|53[1][1][0])", "electric", "HEAVY", 0).
emissionMap("[22|59]", "None", "electric", "HEAVY", 0).
emissionMap("[26|25]", "74", "electric", "HEAVY", 0).
emissionMap("[26|25]", "[68|11]", "electric", "HEAVY", 0).
emissionMap("[26|25]", "[80|127]", "electric", "HEAVY", 0).
emissionMap("[26|25]", "None", "electric", "HEAVY", 0).
emissionMap("[78[0]|56a]", "56b", "electric", "HEAVY", 0).
emissionMap("[78[0]|56a]", "m1", "electric", "HEAVY", 0).
emissionMap("[78[0]|56a]", "None", "electric", "HEAVY", 0).
emissionMap("(77ab)", "(77bc|77cd|53cd|53[0]|53[1][0]|53[1][1][0]|77[1][0])", "electric", "HEAVY", 0).
emissionMap("(77ab)", "(77bc)", "electric", "HEAVY", 0).
emissionMap("(77ab)", "(77bc|77cd|53cd)", "electric", "HEAVY", 0).
emissionMap("(77ab)", "(77bc|77cd)", "electric", "HEAVY", 0).
emissionMap("(77ab)", "(77bc|77cd|53cd|53[0])", "electric", "HEAVY", 0).
emissionMap("(77ab)", "(77bc|77cd|53cd|53[0]|53[1][0])", "electric", "HEAVY", 0).
emissionMap("(77ab)", "(77bc|77cd|53cd|53[0]|53[1][0]|53[1][1][0])", "electric", "HEAVY", 0).
emissionMap("(77ab)", "None", "electric", "HEAVY", 0).
emissionMap("(77ab|77bc)", "21a", "electric", "HEAVY", 0).
emissionMap("(77ab|77bc)", "(77cd|53cd|53[0]|53[1][0]|53[1][1][0]|77[1][0])", "electric", "HEAVY", 0).
emissionMap("(77ab|77bc)", "(77cd|53cd)", "electric", "HEAVY", 0).
emissionMap("(77ab|77bc)", "(77cd)", "electric", "HEAVY", 0).
emissionMap("(77ab|77bc)", "(77cd|53cd|53[0])", "electric", "HEAVY", 0).
emissionMap("(77ab|77bc)", "(77cd|53cd|53[0]|53[1][0])", "electric", "HEAVY", 0).
emissionMap("(77ab|77bc)", "(77cd|53cd|53[0]|53[1][0]|53[1][1][0])", "electric", "HEAVY", 0).
emissionMap("(77ab|77bc)", "None", "electric", "HEAVY", 0).
emissionMap("(77ab|77bc|77cd|53cd)", "82", "electric", "HEAVY", 0).
emissionMap("(77ab|77bc|77cd|53cd)", "(53[0]|53[1][0]|53[1][1][0]|77[1][0])", "electric", "HEAVY", 0).
emissionMap("(77ab|77bc|77cd|53cd)", "(53[0])", "electric", "HEAVY", 0).
emissionMap("(77ab|77bc|77cd|53cd)", "(53[0]|53[1][0])", "electric", "HEAVY", 0).
emissionMap("(77ab|77bc|77cd|53cd)", "(53[0]|53[1][0]|53[1][1][0])", "electric", "HEAVY", 0).
emissionMap("(77ab|77bc|77cd|53cd)", "None", "electric", "HEAVY", 0).
emissionMap("(77ab|77bc|77cd)", "(53cd|53[0]|53[1][0]|53[1][1][0]|77[1][0])", "electric", "HEAVY", 0).
emissionMap("(77ab|77bc|77cd)", "(53cd)", "electric", "HEAVY", 0).
emissionMap("(77ab|77bc|77cd)", "(53cd|53[0])", "electric", "HEAVY", 0).
emissionMap("(77ab|77bc|77cd)", "(53cd|53[0]|53[1][0])", "electric", "HEAVY", 0).
emissionMap("(77ab|77bc|77cd)", "(53cd|53[0]|53[1][0]|53[1][1][0])", "electric", "HEAVY", 0).
emissionMap("(77ab|77bc|77cd)", "None", "electric", "HEAVY", 0).
emissionMap("(77ab|77bc|77cd|53cd|53[0])", "78[1][1]", "electric", "HEAVY", 0).
emissionMap("(77ab|77bc|77cd|53cd|53[0])", "(53[1][0]|53[1][1][0]|77[1][0])", "electric", "HEAVY", 0).
emissionMap("(77ab|77bc|77cd|53cd|53[0])", "(53[1][0])", "electric", "HEAVY", 0).
emissionMap("(77ab|77bc|77cd|53cd|53[0])", "(53[1][0]|53[1][1][0])", "electric", "HEAVY", 0).
emissionMap("(77ab|77bc|77cd|53cd|53[0])", "None", "electric", "HEAVY", 0).
emissionMap("(77ab|77bc|77cd|53cd|53[0]|53[1][0])", "79", "electric", "HEAVY", 0).
emissionMap("(77ab|77bc|77cd|53cd|53[0]|53[1][0])", "(53[1][1][0]|77[1][0])", "electric", "HEAVY", 0).
emissionMap("(77ab|77bc|77cd|53cd|53[0]|53[1][0])", "(53[1][1][0])", "electric", "HEAVY", 0).
emissionMap("(77ab|77bc|77cd|53cd|53[0]|53[1][0])", "None", "electric", "HEAVY", 0).
emissionMap("(77ab|77bc|77cd|53cd|53[0]|53[1][0]|53[1][1][0])", "(77[1][0])", "electric", "HEAVY", 0).
emissionMap("(77ab|77bc|77cd|53cd|53[0]|53[1][0]|53[1][1][0])", "None", "electric", "HEAVY", 0).
emissionMap("(77bc|77cd|53cd|53[0]|53[1][0]|53[1][1][0]|77[1][0])", "77[1][1]", "electric", "HEAVY", 0).
emissionMap("(77bc|77cd|53cd|53[0]|53[1][0]|53[1][1][0]|77[1][0])", "(77ab)", "electric", "HEAVY", 0).
emissionMap("(77bc|77cd|53cd|53[0]|53[1][0]|53[1][1][0]|77[1][0])", "None", "electric", "HEAVY", 0).
emissionMap("(77bc)", "21a", "electric", "HEAVY", 0).
emissionMap("(77bc)", "(77cd|53cd|53[0]|53[1][0]|53[1][1][0]|77[1][0])", "electric", "HEAVY", 0).
emissionMap("(77bc)", "(77cd|53cd|53[0]|53[1][0]|53[1][1][0]|77[1][0]|77ab)", "electric", "HEAVY", 0).
emissionMap("(77bc)", "(77cd|53cd)", "electric", "HEAVY", 0).
emissionMap("(77bc)", "(77cd)", "electric", "HEAVY", 0).
emissionMap("(77bc)", "(77cd|53cd|53[0])", "electric", "HEAVY", 0).
emissionMap("(77bc)", "(77cd|53cd|53[0]|53[1][0])", "electric", "HEAVY", 0).
emissionMap("(77bc)", "(77cd|53cd|53[0]|53[1][0]|53[1][1][0])", "electric", "HEAVY", 0).
emissionMap("(77bc)", "None", "electric", "HEAVY", 0).
emissionMap("(77bc|77cd|53cd)", "82", "electric", "HEAVY", 0).
emissionMap("(77bc|77cd|53cd)", "(53[0]|53[1][0]|53[1][1][0]|77[1][0])", "electric", "HEAVY", 0).
emissionMap("(77bc|77cd|53cd)", "(53[0]|53[1][0]|53[1][1][0]|77[1][0]|77ab)", "electric", "HEAVY", 0).
emissionMap("(77bc|77cd|53cd)", "(53[0])", "electric", "HEAVY", 0).
emissionMap("(77bc|77cd|53cd)", "(53[0]|53[1][0])", "electric", "HEAVY", 0).
emissionMap("(77bc|77cd|53cd)", "(53[0]|53[1][0]|53[1][1][0])", "electric", "HEAVY", 0).
emissionMap("(77bc|77cd|53cd)", "None", "electric", "HEAVY", 0).
emissionMap("(77bc|77cd)", "(53cd|53[0]|53[1][0]|53[1][1][0]|77[1][0])", "electric", "HEAVY", 0).
emissionMap("(77bc|77cd)", "(53cd|53[0]|53[1][0]|53[1][1][0]|77[1][0]|77ab)", "electric", "HEAVY", 0).
emissionMap("(77bc|77cd)", "(53cd)", "electric", "HEAVY", 0).
emissionMap("(77bc|77cd)", "(53cd|53[0])", "electric", "HEAVY", 0).
emissionMap("(77bc|77cd)", "(53cd|53[0]|53[1][0])", "electric", "HEAVY", 0).
emissionMap("(77bc|77cd)", "(53cd|53[0]|53[1][0]|53[1][1][0])", "electric", "HEAVY", 0).
emissionMap("(77bc|77cd)", "None", "electric", "HEAVY", 0).
emissionMap("(77bc|77cd|53cd|53[0])", "78[1][1]", "electric", "HEAVY", 0).
emissionMap("(77bc|77cd|53cd|53[0])", "(53[1][0]|53[1][1][0]|77[1][0])", "electric", "HEAVY", 0).
emissionMap("(77bc|77cd|53cd|53[0])", "(53[1][0]|53[1][1][0]|77[1][0]|77ab)", "electric", "HEAVY", 0).
emissionMap("(77bc|77cd|53cd|53[0])", "(53[1][0])", "electric", "HEAVY", 0).
emissionMap("(77bc|77cd|53cd|53[0])", "(53[1][0]|53[1][1][0])", "electric", "HEAVY", 0).
emissionMap("(77bc|77cd|53cd|53[0])", "None", "electric", "HEAVY", 0).
emissionMap("(77bc|77cd|53cd|53[0]|53[1][0])", "79", "electric", "HEAVY", 0).
emissionMap("(77bc|77cd|53cd|53[0]|53[1][0])", "(53[1][1][0]|77[1][0])", "electric", "HEAVY", 0).
emissionMap("(77bc|77cd|53cd|53[0]|53[1][0])", "(53[1][1][0]|77[1][0]|77ab)", "electric", "HEAVY", 0).
emissionMap("(77bc|77cd|53cd|53[0]|53[1][0])", "(53[1][1][0])", "electric", "HEAVY", 0).
emissionMap("(77bc|77cd|53cd|53[0]|53[1][0])", "None", "electric", "HEAVY", 0).
emissionMap("(77bc|77cd|53cd|53[0]|53[1][0]|53[1][1][0])", "(77[1][0])", "electric", "HEAVY", 0).
emissionMap("(77bc|77cd|53cd|53[0]|53[1][0]|53[1][1][0])", "(77[1][0]|77ab)", "electric", "HEAVY", 0).
emissionMap("(77bc|77cd|53cd|53[0]|53[1][0]|53[1][1][0])", "None", "electric", "HEAVY", 0).
emissionMap("(77cd|53cd|53[0]|53[1][0]|53[1][1][0]|77[1][0])", "77[1][1]", "electric", "HEAVY", 0).
emissionMap("(77cd|53cd|53[0]|53[1][0]|53[1][1][0]|77[1][0])", "(77ab)", "electric", "HEAVY", 0).
emissionMap("(77cd|53cd|53[0]|53[1][0]|53[1][1][0]|77[1][0])", "(77ab|77bc)", "electric", "HEAVY", 0).
emissionMap("(77cd|53cd|53[0]|53[1][0]|53[1][1][0]|77[1][0])", "None", "electric", "HEAVY", 0).
emissionMap("(77cd|53cd|53[0]|53[1][0]|53[1][1][0]|77[1][0]|77ab)", "(77bc)", "electric", "HEAVY", 0).
emissionMap("(77cd|53cd|53[0]|53[1][0]|53[1][1][0]|77[1][0]|77ab)", "None", "electric", "HEAVY", 0).
emissionMap("(77cd|53cd)", "82", "electric", "HEAVY", 0).
emissionMap("(77cd|53cd)", "(53[0]|53[1][0]|53[1][1][0]|77[1][0])", "electric", "HEAVY", 0).
emissionMap("(77cd|53cd)", "(53[0]|53[1][0]|53[1][1][0]|77[1][0]|77ab)", "electric", "HEAVY", 0).
emissionMap("(77cd|53cd)", "(53[0]|53[1][0]|53[1][1][0]|77[1][0]|77ab|77bc)", "electric", "HEAVY", 0).
emissionMap("(77cd|53cd)", "(53[0])", "electric", "HEAVY", 0).
emissionMap("(77cd|53cd)", "(53[0]|53[1][0])", "electric", "HEAVY", 0).
emissionMap("(77cd|53cd)", "(53[0]|53[1][0]|53[1][1][0])", "electric", "HEAVY", 0).
emissionMap("(77cd|53cd)", "None", "electric", "HEAVY", 0).
emissionMap("(77cd)", "(53cd|53[0]|53[1][0]|53[1][1][0]|77[1][0])", "electric", "HEAVY", 0).
emissionMap("(77cd)", "(53cd|53[0]|53[1][0]|53[1][1][0]|77[1][0]|77ab)", "electric", "HEAVY", 0).
emissionMap("(77cd)", "(53cd|53[0]|53[1][0]|53[1][1][0]|77[1][0]|77ab|77bc)", "electric", "HEAVY", 0).
emissionMap("(77cd)", "(53cd)", "electric", "HEAVY", 0).
emissionMap("(77cd)", "(53cd|53[0])", "electric", "HEAVY", 0).
emissionMap("(77cd)", "(53cd|53[0]|53[1][0])", "electric", "HEAVY", 0).
emissionMap("(77cd)", "(53cd|53[0]|53[1][0]|53[1][1][0])", "electric", "HEAVY", 0).
emissionMap("(77cd)", "None", "electric", "HEAVY", 0).
emissionMap("(77cd|53cd|53[0])", "78[1][1]", "electric", "HEAVY", 0).
emissionMap("(77cd|53cd|53[0])", "(53[1][0]|53[1][1][0]|77[1][0])", "electric", "HEAVY", 0).
emissionMap("(77cd|53cd|53[0])", "(53[1][0]|53[1][1][0]|77[1][0]|77ab)", "electric", "HEAVY", 0).
emissionMap("(77cd|53cd|53[0])", "(53[1][0]|53[1][1][0]|77[1][0]|77ab|77bc)", "electric", "HEAVY", 0).
emissionMap("(77cd|53cd|53[0])", "(53[1][0])", "electric", "HEAVY", 0).
emissionMap("(77cd|53cd|53[0])", "(53[1][0]|53[1][1][0])", "electric", "HEAVY", 0).
emissionMap("(77cd|53cd|53[0])", "None", "electric", "HEAVY", 0).
emissionMap("(77cd|53cd|53[0]|53[1][0])", "79", "electric", "HEAVY", 0).
emissionMap("(77cd|53cd|53[0]|53[1][0])", "(53[1][1][0]|77[1][0])", "electric", "HEAVY", 0).
emissionMap("(77cd|53cd|53[0]|53[1][0])", "(53[1][1][0]|77[1][0]|77ab)", "electric", "HEAVY", 0).
emissionMap("(77cd|53cd|53[0]|53[1][0])", "(53[1][1][0]|77[1][0]|77ab|77bc)", "electric", "HEAVY", 0).
emissionMap("(77cd|53cd|53[0]|53[1][0])", "(53[1][1][0])", "electric", "HEAVY", 0).
emissionMap("(77cd|53cd|53[0]|53[1][0])", "None", "electric", "HEAVY", 0).
emissionMap("(77cd|53cd|53[0]|53[1][0]|53[1][1][0])", "(77[1][0])", "electric", "HEAVY", 0).
emissionMap("(77cd|53cd|53[0]|53[1][0]|53[1][1][0])", "(77[1][0]|77ab)", "electric", "HEAVY", 0).
emissionMap("(77cd|53cd|53[0]|53[1][0]|53[1][1][0])", "(77[1][0]|77ab|77bc)", "electric", "HEAVY", 0).
emissionMap("(77cd|53cd|53[0]|53[1][0]|53[1][1][0])", "None", "electric", "HEAVY", 0).
emissionMap("(53[0]|53[1][0]|53[1][1][0]|77[1][0])", "77[1][1]", "electric", "HEAVY", 0).
emissionMap("(53[0]|53[1][0]|53[1][1][0]|77[1][0])", "(77ab)", "electric", "HEAVY", 0).
emissionMap("(53[0]|53[1][0]|53[1][1][0]|77[1][0])", "(77ab|77bc)", "electric", "HEAVY", 0).
emissionMap("(53[0]|53[1][0]|53[1][1][0]|77[1][0])", "(77ab|77bc|77cd|53cd)", "electric", "HEAVY", 0).
emissionMap("(53[0]|53[1][0]|53[1][1][0]|77[1][0])", "(77ab|77bc|77cd)", "electric", "HEAVY", 0).
emissionMap("(53[0]|53[1][0]|53[1][1][0]|77[1][0])", "None", "electric", "HEAVY", 0).
emissionMap("(53[0]|53[1][0]|53[1][1][0]|77[1][0]|77ab)", "(77bc)", "electric", "HEAVY", 0).
emissionMap("(53[0]|53[1][0]|53[1][1][0]|77[1][0]|77ab)", "(77bc|77cd|53cd)", "electric", "HEAVY", 0).
emissionMap("(53[0]|53[1][0]|53[1][1][0]|77[1][0]|77ab)", "(77bc|77cd)", "electric", "HEAVY", 0).
emissionMap("(53[0]|53[1][0]|53[1][1][0]|77[1][0]|77ab)", "None", "electric", "HEAVY", 0).
emissionMap("(53[0]|53[1][0]|53[1][1][0]|77[1][0]|77ab|77bc)", "21a", "electric", "HEAVY", 0).
emissionMap("(53[0]|53[1][0]|53[1][1][0]|77[1][0]|77ab|77bc)", "(77cd|53cd)", "electric", "HEAVY", 0).
emissionMap("(53[0]|53[1][0]|53[1][1][0]|77[1][0]|77ab|77bc)", "(77cd)", "electric", "HEAVY", 0).
emissionMap("(53[0]|53[1][0]|53[1][1][0]|77[1][0]|77ab|77bc)", "None", "electric", "HEAVY", 0).
emissionMap("(53[0]|53[1][0]|53[1][1][0]|77[1][0]|77ab|77bc|77cd)", "(53cd)", "electric", "HEAVY", 0).
emissionMap("(53[0]|53[1][0]|53[1][1][0]|77[1][0]|77ab|77bc|77cd)", "None", "electric", "HEAVY", 0).
emissionMap("(53[0])", "78[1][1]", "electric", "HEAVY", 0).
emissionMap("(53[0])", "(53[1][0]|53[1][1][0]|77[1][0])", "electric", "HEAVY", 0).
emissionMap("(53[0])", "(53[1][0]|53[1][1][0]|77[1][0]|77ab)", "electric", "HEAVY", 0).
emissionMap("(53[0])", "(53[1][0]|53[1][1][0]|77[1][0]|77ab|77bc)", "electric", "HEAVY", 0).
emissionMap("(53[0])", "(53[1][0]|53[1][1][0]|77[1][0]|77ab|77bc|77cd|53cd)", "electric", "HEAVY", 0).
emissionMap("(53[0])", "(53[1][0]|53[1][1][0]|77[1][0]|77ab|77bc|77cd)", "electric", "HEAVY", 0).
emissionMap("(53[0])", "(53[1][0])", "electric", "HEAVY", 0).
emissionMap("(53[0])", "(53[1][0]|53[1][1][0])", "electric", "HEAVY", 0).
emissionMap("(53[0])", "None", "electric", "HEAVY", 0).
emissionMap("(53[0]|53[1][0])", "79", "electric", "HEAVY", 0).
emissionMap("(53[0]|53[1][0])", "(53[1][1][0]|77[1][0])", "electric", "HEAVY", 0).
emissionMap("(53[0]|53[1][0])", "(53[1][1][0]|77[1][0]|77ab)", "electric", "HEAVY", 0).
emissionMap("(53[0]|53[1][0])", "(53[1][1][0]|77[1][0]|77ab|77bc)", "electric", "HEAVY", 0).
emissionMap("(53[0]|53[1][0])", "(53[1][1][0]|77[1][0]|77ab|77bc|77cd|53cd)", "electric", "HEAVY", 0).
emissionMap("(53[0]|53[1][0])", "(53[1][1][0]|77[1][0]|77ab|77bc|77cd)", "electric", "HEAVY", 0).
emissionMap("(53[0]|53[1][0])", "(53[1][1][0])", "electric", "HEAVY", 0).
emissionMap("(53[0]|53[1][0])", "None", "electric", "HEAVY", 0).
emissionMap("(53[0]|53[1][0]|53[1][1][0])", "(77[1][0])", "electric", "HEAVY", 0).
emissionMap("(53[0]|53[1][0]|53[1][1][0])", "(77[1][0]|77ab)", "electric", "HEAVY", 0).
emissionMap("(53[0]|53[1][0]|53[1][1][0])", "(77[1][0]|77ab|77bc)", "electric", "HEAVY", 0).
emissionMap("(53[0]|53[1][0]|53[1][1][0])", "(77[1][0]|77ab|77bc|77cd|53cd)", "electric", "HEAVY", 0).
emissionMap("(53[0]|53[1][0]|53[1][1][0])", "(77[1][0]|77ab|77bc|77cd)", "electric", "HEAVY", 0).
emissionMap("(53[0]|53[1][0]|53[1][1][0])", "None", "electric", "HEAVY", 0).
emissionMap("(53cd|53[0]|53[1][0]|53[1][1][0]|77[1][0])", "77[1][1]", "electric", "HEAVY", 0).
emissionMap("(53cd|53[0]|53[1][0]|53[1][1][0]|77[1][0])", "(77ab)", "electric", "HEAVY", 0).
emissionMap("(53cd|53[0]|53[1][0]|53[1][1][0]|77[1][0])", "(77ab|77bc)", "electric", "HEAVY", 0).
emissionMap("(53cd|53[0]|53[1][0]|53[1][1][0]|77[1][0])", "(77ab|77bc|77cd)", "electric", "HEAVY", 0).
emissionMap("(53cd|53[0]|53[1][0]|53[1][1][0]|77[1][0])", "None", "electric", "HEAVY", 0).
emissionMap("(53cd|53[0]|53[1][0]|53[1][1][0]|77[1][0]|77ab)", "(77bc)", "electric", "HEAVY", 0).
emissionMap("(53cd|53[0]|53[1][0]|53[1][1][0]|77[1][0]|77ab)", "(77bc|77cd)", "electric", "HEAVY", 0).
emissionMap("(53cd|53[0]|53[1][0]|53[1][1][0]|77[1][0]|77ab)", "None", "electric", "HEAVY", 0).
emissionMap("(53cd|53[0]|53[1][0]|53[1][1][0]|77[1][0]|77ab|77bc)", "21a", "electric", "HEAVY", 0).
emissionMap("(53cd|53[0]|53[1][0]|53[1][1][0]|77[1][0]|77ab|77bc)", "(77cd)", "electric", "HEAVY", 0).
emissionMap("(53cd|53[0]|53[1][0]|53[1][1][0]|77[1][0]|77ab|77bc)", "None", "electric", "HEAVY", 0).
emissionMap("(53cd)", "82", "electric", "HEAVY", 0).
emissionMap("(53cd)", "(53[0]|53[1][0]|53[1][1][0]|77[1][0])", "electric", "HEAVY", 0).
emissionMap("(53cd)", "(53[0]|53[1][0]|53[1][1][0]|77[1][0]|77ab)", "electric", "HEAVY", 0).
emissionMap("(53cd)", "(53[0]|53[1][0]|53[1][1][0]|77[1][0]|77ab|77bc)", "electric", "HEAVY", 0).
emissionMap("(53cd)", "(53[0]|53[1][0]|53[1][1][0]|77[1][0]|77ab|77bc|77cd)", "electric", "HEAVY", 0).
emissionMap("(53cd)", "(53[0])", "electric", "HEAVY", 0).
emissionMap("(53cd)", "(53[0]|53[1][0])", "electric", "HEAVY", 0).
emissionMap("(53cd)", "(53[0]|53[1][0]|53[1][1][0])", "electric", "HEAVY", 0).
emissionMap("(53cd)", "None", "electric", "HEAVY", 0).
emissionMap("(53cd|53[0])", "78[1][1]", "electric", "HEAVY", 0).
emissionMap("(53cd|53[0])", "(53[1][0]|53[1][1][0]|77[1][0])", "electric", "HEAVY", 0).
emissionMap("(53cd|53[0])", "(53[1][0]|53[1][1][0]|77[1][0]|77ab)", "electric", "HEAVY", 0).
emissionMap("(53cd|53[0])", "(53[1][0]|53[1][1][0]|77[1][0]|77ab|77bc)", "electric", "HEAVY", 0).
emissionMap("(53cd|53[0])", "(53[1][0]|53[1][1][0]|77[1][0]|77ab|77bc|77cd)", "electric", "HEAVY", 0).
emissionMap("(53cd|53[0])", "(53[1][0])", "electric", "HEAVY", 0).
emissionMap("(53cd|53[0])", "(53[1][0]|53[1][1][0])", "electric", "HEAVY", 0).
emissionMap("(53cd|53[0])", "None", "electric", "HEAVY", 0).
emissionMap("(53cd|53[0]|53[1][0])", "79", "electric", "HEAVY", 0).
emissionMap("(53cd|53[0]|53[1][0])", "(53[1][1][0]|77[1][0])", "electric", "HEAVY", 0).
emissionMap("(53cd|53[0]|53[1][0])", "(53[1][1][0]|77[1][0]|77ab)", "electric", "HEAVY", 0).
emissionMap("(53cd|53[0]|53[1][0])", "(53[1][1][0]|77[1][0]|77ab|77bc)", "electric", "HEAVY", 0).
emissionMap("(53cd|53[0]|53[1][0])", "(53[1][1][0]|77[1][0]|77ab|77bc|77cd)", "electric", "HEAVY", 0).
emissionMap("(53cd|53[0]|53[1][0])", "(53[1][1][0])", "electric", "HEAVY", 0).
emissionMap("(53cd|53[0]|53[1][0])", "None", "electric", "HEAVY", 0).
emissionMap("(53cd|53[0]|53[1][0]|53[1][1][0])", "(77[1][0])", "electric", "HEAVY", 0).
emissionMap("(53cd|53[0]|53[1][0]|53[1][1][0])", "(77[1][0]|77ab)", "electric", "HEAVY", 0).
emissionMap("(53cd|53[0]|53[1][0]|53[1][1][0])", "(77[1][0]|77ab|77bc)", "electric", "HEAVY", 0).
emissionMap("(53cd|53[0]|53[1][0]|53[1][1][0])", "(77[1][0]|77ab|77bc|77cd)", "electric", "HEAVY", 0).
emissionMap("(53cd|53[0]|53[1][0]|53[1][1][0])", "None", "electric", "HEAVY", 0).
emissionMap("(53[1][0]|53[1][1][0]|77[1][0])", "77[1][1]", "electric", "HEAVY", 0).
emissionMap("(53[1][0]|53[1][1][0]|77[1][0])", "(77ab)", "electric", "HEAVY", 0).
emissionMap("(53[1][0]|53[1][1][0]|77[1][0])", "(77ab|77bc)", "electric", "HEAVY", 0).
emissionMap("(53[1][0]|53[1][1][0]|77[1][0])", "(77ab|77bc|77cd|53cd)", "electric", "HEAVY", 0).
emissionMap("(53[1][0]|53[1][1][0]|77[1][0])", "(77ab|77bc|77cd)", "electric", "HEAVY", 0).
emissionMap("(53[1][0]|53[1][1][0]|77[1][0])", "(77ab|77bc|77cd|53cd|53[0])", "electric", "HEAVY", 0).
emissionMap("(53[1][0]|53[1][1][0]|77[1][0])", "None", "electric", "HEAVY", 0).
emissionMap("(53[1][0]|53[1][1][0]|77[1][0]|77ab)", "(77bc)", "electric", "HEAVY", 0).
emissionMap("(53[1][0]|53[1][1][0]|77[1][0]|77ab)", "(77bc|77cd|53cd)", "electric", "HEAVY", 0).
emissionMap("(53[1][0]|53[1][1][0]|77[1][0]|77ab)", "(77bc|77cd)", "electric", "HEAVY", 0).
emissionMap("(53[1][0]|53[1][1][0]|77[1][0]|77ab)", "(77bc|77cd|53cd|53[0])", "electric", "HEAVY", 0).
emissionMap("(53[1][0]|53[1][1][0]|77[1][0]|77ab)", "None", "electric", "HEAVY", 0).
emissionMap("(53[1][0]|53[1][1][0]|77[1][0]|77ab|77bc)", "21a", "electric", "HEAVY", 0).
emissionMap("(53[1][0]|53[1][1][0]|77[1][0]|77ab|77bc)", "(77cd|53cd)", "electric", "HEAVY", 0).
emissionMap("(53[1][0]|53[1][1][0]|77[1][0]|77ab|77bc)", "(77cd)", "electric", "HEAVY", 0).
emissionMap("(53[1][0]|53[1][1][0]|77[1][0]|77ab|77bc)", "(77cd|53cd|53[0])", "electric", "HEAVY", 0).
emissionMap("(53[1][0]|53[1][1][0]|77[1][0]|77ab|77bc)", "None", "electric", "HEAVY", 0).
emissionMap("(53[1][0]|53[1][1][0]|77[1][0]|77ab|77bc|77cd|53cd)", "82", "electric", "HEAVY", 0).
emissionMap("(53[1][0]|53[1][1][0]|77[1][0]|77ab|77bc|77cd|53cd)", "(53[0])", "electric", "HEAVY", 0).
emissionMap("(53[1][0]|53[1][1][0]|77[1][0]|77ab|77bc|77cd|53cd)", "None", "electric", "HEAVY", 0).
emissionMap("(53[1][0]|53[1][1][0]|77[1][0]|77ab|77bc|77cd)", "(53cd)", "electric", "HEAVY", 0).
emissionMap("(53[1][0]|53[1][1][0]|77[1][0]|77ab|77bc|77cd)", "(53cd|53[0])", "electric", "HEAVY", 0).
emissionMap("(53[1][0]|53[1][1][0]|77[1][0]|77ab|77bc|77cd)", "None", "electric", "HEAVY", 0).
emissionMap("(53[1][0])", "79", "electric", "HEAVY", 0).
emissionMap("(53[1][0])", "(53[1][1][0]|77[1][0])", "electric", "HEAVY", 0).
emissionMap("(53[1][0])", "(53[1][1][0]|77[1][0]|77ab)", "electric", "HEAVY", 0).
emissionMap("(53[1][0])", "(53[1][1][0]|77[1][0]|77ab|77bc)", "electric", "HEAVY", 0).
emissionMap("(53[1][0])", "(53[1][1][0]|77[1][0]|77ab|77bc|77cd|53cd)", "electric", "HEAVY", 0).
emissionMap("(53[1][0])", "(53[1][1][0]|77[1][0]|77ab|77bc|77cd)", "electric", "HEAVY", 0).
emissionMap("(53[1][0])", "(53[1][1][0]|77[1][0]|77ab|77bc|77cd|53cd|53[0])", "electric", "HEAVY", 0).
emissionMap("(53[1][0])", "(53[1][1][0])", "electric", "HEAVY", 0).
emissionMap("(53[1][0])", "None", "electric", "HEAVY", 0).
emissionMap("(53[1][0]|53[1][1][0])", "(77[1][0])", "electric", "HEAVY", 0).
emissionMap("(53[1][0]|53[1][1][0])", "(77[1][0]|77ab)", "electric", "HEAVY", 0).
emissionMap("(53[1][0]|53[1][1][0])", "(77[1][0]|77ab|77bc)", "electric", "HEAVY", 0).
emissionMap("(53[1][0]|53[1][1][0])", "(77[1][0]|77ab|77bc|77cd|53cd)", "electric", "HEAVY", 0).
emissionMap("(53[1][0]|53[1][1][0])", "(77[1][0]|77ab|77bc|77cd)", "electric", "HEAVY", 0).
emissionMap("(53[1][0]|53[1][1][0])", "(77[1][0]|77ab|77bc|77cd|53cd|53[0])", "electric", "HEAVY", 0).
emissionMap("(53[1][0]|53[1][1][0])", "None", "electric", "HEAVY", 0).
emissionMap("(53[1][1][0]|77[1][0])", "77[1][1]", "electric", "HEAVY", 0).
emissionMap("(53[1][1][0]|77[1][0])", "(77ab)", "electric", "HEAVY", 0).
emissionMap("(53[1][1][0]|77[1][0])", "(77ab|77bc)", "electric", "HEAVY", 0).
emissionMap("(53[1][1][0]|77[1][0])", "(77ab|77bc|77cd|53cd)", "electric", "HEAVY", 0).
emissionMap("(53[1][1][0]|77[1][0])", "(77ab|77bc|77cd)", "electric", "HEAVY", 0).
emissionMap("(53[1][1][0]|77[1][0])", "(77ab|77bc|77cd|53cd|53[0])", "electric", "HEAVY", 0).
emissionMap("(53[1][1][0]|77[1][0])", "(77ab|77bc|77cd|53cd|53[0]|53[1][0])", "electric", "HEAVY", 0).
emissionMap("(53[1][1][0]|77[1][0])", "None", "electric", "HEAVY", 0).
emissionMap("(53[1][1][0]|77[1][0]|77ab)", "(77bc)", "electric", "HEAVY", 0).
emissionMap("(53[1][1][0]|77[1][0]|77ab)", "(77bc|77cd|53cd)", "electric", "HEAVY", 0).
emissionMap("(53[1][1][0]|77[1][0]|77ab)", "(77bc|77cd)", "electric", "HEAVY", 0).
emissionMap("(53[1][1][0]|77[1][0]|77ab)", "(77bc|77cd|53cd|53[0])", "electric", "HEAVY", 0).
emissionMap("(53[1][1][0]|77[1][0]|77ab)", "(77bc|77cd|53cd|53[0]|53[1][0])", "electric", "HEAVY", 0).
emissionMap("(53[1][1][0]|77[1][0]|77ab)", "None", "electric", "HEAVY", 0).
emissionMap("(53[1][1][0]|77[1][0]|77ab|77bc)", "21a", "electric", "HEAVY", 0).
emissionMap("(53[1][1][0]|77[1][0]|77ab|77bc)", "(77cd|53cd)", "electric", "HEAVY", 0).
emissionMap("(53[1][1][0]|77[1][0]|77ab|77bc)", "(77cd)", "electric", "HEAVY", 0).
emissionMap("(53[1][1][0]|77[1][0]|77ab|77bc)", "(77cd|53cd|53[0])", "electric", "HEAVY", 0).
emissionMap("(53[1][1][0]|77[1][0]|77ab|77bc)", "(77cd|53cd|53[0]|53[1][0])", "electric", "HEAVY", 0).
emissionMap("(53[1][1][0]|77[1][0]|77ab|77bc)", "None", "electric", "HEAVY", 0).
emissionMap("(53[1][1][0]|77[1][0]|77ab|77bc|77cd|53cd)", "82", "electric", "HEAVY", 0).
emissionMap("(53[1][1][0]|77[1][0]|77ab|77bc|77cd|53cd)", "(53[0])", "electric", "HEAVY", 0).
emissionMap("(53[1][1][0]|77[1][0]|77ab|77bc|77cd|53cd)", "(53[0]|53[1][0])", "electric", "HEAVY", 0).
emissionMap("(53[1][1][0]|77[1][0]|77ab|77bc|77cd|53cd)", "None", "electric", "HEAVY", 0).
emissionMap("(53[1][1][0]|77[1][0]|77ab|77bc|77cd)", "(53cd)", "electric", "HEAVY", 0).
emissionMap("(53[1][1][0]|77[1][0]|77ab|77bc|77cd)", "(53cd|53[0])", "electric", "HEAVY", 0).
emissionMap("(53[1][1][0]|77[1][0]|77ab|77bc|77cd)", "(53cd|53[0]|53[1][0])", "electric", "HEAVY", 0).
emissionMap("(53[1][1][0]|77[1][0]|77ab|77bc|77cd)", "None", "electric", "HEAVY", 0).
emissionMap("(53[1][1][0]|77[1][0]|77ab|77bc|77cd|53cd|53[0])", "78[1][1]", "electric", "HEAVY", 0).
emissionMap("(53[1][1][0]|77[1][0]|77ab|77bc|77cd|53cd|53[0])", "(53[1][0])", "electric", "HEAVY", 0).
emissionMap("(53[1][1][0]|77[1][0]|77ab|77bc|77cd|53cd|53[0])", "None", "electric", "HEAVY", 0).
emissionMap("(53[1][1][0])", "(77[1][0])", "electric", "HEAVY", 0).
emissionMap("(53[1][1][0])", "(77[1][0]|77ab)", "electric", "HEAVY", 0).
emissionMap("(53[1][1][0])", "(77[1][0]|77ab|77bc)", "electric", "HEAVY", 0).
emissionMap("(53[1][1][0])", "(77[1][0]|77ab|77bc|77cd|53cd)", "electric", "HEAVY", 0).
emissionMap("(53[1][1][0])", "(77[1][0]|77ab|77bc|77cd)", "electric", "HEAVY", 0).
emissionMap("(53[1][1][0])", "(77[1][0]|77ab|77bc|77cd|53cd|53[0])", "electric", "HEAVY", 0).
emissionMap("(53[1][1][0])", "(77[1][0]|77ab|77bc|77cd|53cd|53[0]|53[1][0])", "electric", "HEAVY", 0).
emissionMap("(53[1][1][0])", "None", "electric", "HEAVY", 0).
emissionMap("(77[1][0])", "77[1][1]", "electric", "HEAVY", 0).
emissionMap("(77[1][0])", "(77ab)", "electric", "HEAVY", 0).
emissionMap("(77[1][0])", "(77ab|77bc)", "electric", "HEAVY", 0).
emissionMap("(77[1][0])", "(77ab|77bc|77cd|53cd)", "electric", "HEAVY", 0).
emissionMap("(77[1][0])", "(77ab|77bc|77cd)", "electric", "HEAVY", 0).
emissionMap("(77[1][0])", "(77ab|77bc|77cd|53cd|53[0])", "electric", "HEAVY", 0).
emissionMap("(77[1][0])", "(77ab|77bc|77cd|53cd|53[0]|53[1][0])", "electric", "HEAVY", 0).
emissionMap("(77[1][0])", "(77ab|77bc|77cd|53cd|53[0]|53[1][0]|53[1][1][0])", "electric", "HEAVY", 0).
emissionMap("(77[1][0])", "None", "electric", "HEAVY", 0).
emissionMap("(77[1][0]|77ab)", "(77bc)", "electric", "HEAVY", 0).
emissionMap("(77[1][0]|77ab)", "(77bc|77cd|53cd)", "electric", "HEAVY", 0).
emissionMap("(77[1][0]|77ab)", "(77bc|77cd)", "electric", "HEAVY", 0).
emissionMap("(77[1][0]|77ab)", "(77bc|77cd|53cd|53[0])", "electric", "HEAVY", 0).
emissionMap("(77[1][0]|77ab)", "(77bc|77cd|53cd|53[0]|53[1][0])", "electric", "HEAVY", 0).
emissionMap("(77[1][0]|77ab)", "(77bc|77cd|53cd|53[0]|53[1][0]|53[1][1][0])", "electric", "HEAVY", 0).
emissionMap("(77[1][0]|77ab)", "None", "electric", "HEAVY", 0).
emissionMap("(77[1][0]|77ab|77bc)", "21a", "electric", "HEAVY", 0).
emissionMap("(77[1][0]|77ab|77bc)", "(77cd|53cd)", "electric", "HEAVY", 0).
emissionMap("(77[1][0]|77ab|77bc)", "(77cd)", "electric", "HEAVY", 0).
emissionMap("(77[1][0]|77ab|77bc)", "(77cd|53cd|53[0])", "electric", "HEAVY", 0).
emissionMap("(77[1][0]|77ab|77bc)", "(77cd|53cd|53[0]|53[1][0])", "electric", "HEAVY", 0).
emissionMap("(77[1][0]|77ab|77bc)", "(77cd|53cd|53[0]|53[1][0]|53[1][1][0])", "electric", "HEAVY", 0).
emissionMap("(77[1][0]|77ab|77bc)", "None", "electric", "HEAVY", 0).
emissionMap("(77[1][0]|77ab|77bc|77cd|53cd)", "82", "electric", "HEAVY", 0).
emissionMap("(77[1][0]|77ab|77bc|77cd|53cd)", "(53[0])", "electric", "HEAVY", 0).
emissionMap("(77[1][0]|77ab|77bc|77cd|53cd)", "(53[0]|53[1][0])", "electric", "HEAVY", 0).
emissionMap("(77[1][0]|77ab|77bc|77cd|53cd)", "(53[0]|53[1][0]|53[1][1][0])", "electric", "HEAVY", 0).
emissionMap("(77[1][0]|77ab|77bc|77cd|53cd)", "None", "electric", "HEAVY", 0).
emissionMap("(77[1][0]|77ab|77bc|77cd)", "(53cd)", "electric", "HEAVY", 0).
emissionMap("(77[1][0]|77ab|77bc|77cd)", "(53cd|53[0])", "electric", "HEAVY", 0).
emissionMap("(77[1][0]|77ab|77bc|77cd)", "(53cd|53[0]|53[1][0])", "electric", "HEAVY", 0).
emissionMap("(77[1][0]|77ab|77bc|77cd)", "(53cd|53[0]|53[1][0]|53[1][1][0])", "electric", "HEAVY", 0).
emissionMap("(77[1][0]|77ab|77bc|77cd)", "None", "electric", "HEAVY", 0).
emissionMap("(77[1][0]|77ab|77bc|77cd|53cd|53[0])", "78[1][1]", "electric", "HEAVY", 0).
emissionMap("(77[1][0]|77ab|77bc|77cd|53cd|53[0])", "(53[1][0])", "electric", "HEAVY", 0).
emissionMap("(77[1][0]|77ab|77bc|77cd|53cd|53[0])", "(53[1][0]|53[1][1][0])", "electric", "HEAVY", 0).
emissionMap("(77[1][0]|77ab|77bc|77cd|53cd|53[0])", "None", "electric", "HEAVY", 0).
emissionMap("(77[1][0]|77ab|77bc|77cd|53cd|53[0]|53[1][0])", "79", "electric", "HEAVY", 0).
emissionMap("(77[1][0]|77ab|77bc|77cd|53cd|53[0]|53[1][0])", "(53[1][1][0])", "electric", "HEAVY", 0).
emissionMap("(77[1][0]|77ab|77bc|77cd|53cd|53[0]|53[1][0])", "None", "electric", "HEAVY", 0).
emissionMap("1", "204a[0]", "gasoline_euro4", "MEDIUM", 0).
emissionMap("1", "None", "gasoline_euro4", "MEDIUM", 0).
emissionMap("10", "[13|104]", "gasoline_euro4", "MEDIUM", 3).
emissionMap("10", "None", "gasoline_euro4", "MEDIUM", 2).
emissionMap("103", "14", "gasoline_euro4", "MEDIUM", 4).
emissionMap("103", "16", "gasoline_euro4", "MEDIUM", 1).
emissionMap("103", "49", "gasoline_euro4", "MEDIUM", 4).
emissionMap("103", "None", "gasoline_euro4", "MEDIUM", 3).
emissionMap("104", "16", "gasoline_euro4", "MEDIUM", 0).
emissionMap("104", "24", "gasoline_euro4", "MEDIUM", 5).
emissionMap("104", "49", "gasoline_euro4", "MEDIUM", 2).
emissionMap("104", "None", "gasoline_euro4", "MEDIUM", 0).
emissionMap("109[0]", "109[1][0]+20003", "gasoline_euro4", "MEDIUM", 0).
emissionMap("109[0]", "None", "gasoline_euro4", "MEDIUM", 0).
emissionMap("109[1][0]+20003", "109[1][1]", "gasoline_euro4", "MEDIUM", 0).
emissionMap("109[1][0]+20003", "None", "gasoline_euro4", "MEDIUM", 0).
emissionMap("109[1][1]", "120", "gasoline_euro4", "MEDIUM", 0).
emissionMap("109[1][1]", "[116|46]", "gasoline_euro4", "MEDIUM", 0).
emissionMap("109[1][1]", "None", "gasoline_euro4", "MEDIUM", 0).
emissionMap("11", "72[0]", "gasoline_euro4", "MEDIUM", 1).
emissionMap("11", "84", "gasoline_euro4", "MEDIUM", 0).
emissionMap("11", "86", "gasoline_euro4", "MEDIUM", 0).
emissionMap("11", "None", "gasoline_euro4", "MEDIUM", 0).
emissionMap("113", "118", "gasoline_euro4", "MEDIUM", 3).
emissionMap("113", "209", "gasoline_euro4", "MEDIUM", 0).
emissionMap("113", "None", "gasoline_euro4", "MEDIUM", 0).
emissionMap("114", "None", "gasoline_euro4", "MEDIUM", 0).
emissionMap("116", "46", "gasoline_euro4", "MEDIUM", 0).
emissionMap("116", "None", "gasoline_euro4", "MEDIUM", 0).
emissionMap("117", "209", "gasoline_euro4", "MEDIUM", 5).
emissionMap("117", "None", "gasoline_euro4", "MEDIUM", 5).
emissionMap("118", "119", "gasoline_euro4", "MEDIUM", 3).
emissionMap("118", "65", "gasoline_euro4", "MEDIUM", 3).
emissionMap("118", "None", "gasoline_euro4", "MEDIUM", 6).
emissionMap("119", "[116|46]", "gasoline_euro4", "MEDIUM", 4).
emissionMap("119", "None", "gasoline_euro4", "MEDIUM", 5).
emissionMap("12", "67", "gasoline_euro4", "MEDIUM", 0).
emissionMap("12", "86", "gasoline_euro4", "MEDIUM", 2).
emissionMap("12", "None", "gasoline_euro4", "MEDIUM", 0).
emissionMap("120", "117", "gasoline_euro4", "MEDIUM", 31).
emissionMap("120", "65", "gasoline_euro4", "MEDIUM", 25).
emissionMap("120", "None", "gasoline_euro4", "MEDIUM", 34).
emissionMap("122", "1b", "gasoline_euro4", "MEDIUM", 3).
emissionMap("122", "[3|2]", "gasoline_euro4", "MEDIUM", 3).
emissionMap("122", "None", "gasoline_euro4", "MEDIUM", 3).
emissionMap("124", "None", "gasoline_euro4", "MEDIUM", 0).
emissionMap("127", "(77[1][0])", "gasoline_euro4", "MEDIUM", 2).
emissionMap("127", "(77[1][0]|77ab)", "gasoline_euro4", "MEDIUM", 2).
emissionMap("127", "(77[1][0]|77ab|77bc)", "gasoline_euro4", "MEDIUM", 2).
emissionMap("127", "(77[1][0]|77ab|77bc|77cd|53cd)", "gasoline_euro4", "MEDIUM", 2).
emissionMap("127", "(77[1][0]|77ab|77bc|77cd)", "gasoline_euro4", "MEDIUM", 2).
emissionMap("127", "(77[1][0]|77ab|77bc|77cd|53cd|53[0])", "gasoline_euro4", "MEDIUM", 2).
emissionMap("127", "(77[1][0]|77ab|77bc|77cd|53cd|53[0]|53[1][0])", "gasoline_euro4", "MEDIUM", 2).
emissionMap("127", "None", "gasoline_euro4", "MEDIUM", 2).
emissionMap("13", "104", "gasoline_euro4", "MEDIUM", 0).
emissionMap("13", "None", "gasoline_euro4", "MEDIUM", 0).
emissionMap("131", "117", "gasoline_euro4", "MEDIUM", 30).
emissionMap("131", "119", "gasoline_euro4", "MEDIUM", 30).
emissionMap("131", "65", "gasoline_euro4", "MEDIUM", 31).
emissionMap("131", "None", "gasoline_euro4", "MEDIUM", 36).
emissionMap("133", "31", "gasoline_euro4", "MEDIUM", 2).
emissionMap("133", "None", "gasoline_euro4", "MEDIUM", 2).
emissionMap("134", "[134b|133]", "gasoline_euro4", "MEDIUM", 0).
emissionMap("134", "None", "gasoline_euro4", "MEDIUM", 0).
emissionMap("134b", "133", "gasoline_euro4", "MEDIUM", 2).
emissionMap("134b", "None", "gasoline_euro4", "MEDIUM", 2).
emissionMap("135", "[181|18]", "gasoline_euro4", "MEDIUM", 48).
emissionMap("135", "None", "gasoline_euro4", "MEDIUM", 49).
emissionMap("136", "135", "gasoline_euro4", "MEDIUM", 3).
emissionMap("136", "None", "gasoline_euro4", "MEDIUM", 3).
emissionMap("137", "180", "gasoline_euro4", "MEDIUM", 2).
emissionMap("137", "None", "gasoline_euro4", "MEDIUM", 3).
emissionMap("138", "137", "gasoline_euro4", "MEDIUM", 3).
emissionMap("138", "None", "gasoline_euro4", "MEDIUM", 3).
emissionMap("14", "9", "gasoline_euro4", "MEDIUM", 3).
emissionMap("14", "None", "gasoline_euro4", "MEDIUM", 3).
emissionMap("15", "14", "gasoline_euro4", "MEDIUM", 2).
emissionMap("15", "24", "gasoline_euro4", "MEDIUM", 2).
emissionMap("15", "49", "gasoline_euro4", "MEDIUM", 2).
emissionMap("15", "None", "gasoline_euro4", "MEDIUM", 2).
emissionMap("153", "[87[0]|20001+87[1][0]|87[1][1]]", "gasoline_euro4", "MEDIUM", 12).
emissionMap("153", "None", "gasoline_euro4", "MEDIUM", 12).
emissionMap("159", "42", "gasoline_euro4", "MEDIUM", 3).
emissionMap("159", "None", "gasoline_euro4", "MEDIUM", 3).
emissionMap("16", "37", "gasoline_euro4", "MEDIUM", 0).
emissionMap("16", "None", "gasoline_euro4", "MEDIUM", 0).
emissionMap("160", "61", "gasoline_euro4", "MEDIUM", 19).
emissionMap("160", "None", "gasoline_euro4", "MEDIUM", 19).
emissionMap("161", "122", "gasoline_euro4", "MEDIUM", 1).
emissionMap("161", "194", "gasoline_euro4", "MEDIUM", 5).
emissionMap("161", "None", "gasoline_euro4", "MEDIUM", 1).
emissionMap("165", "166", "gasoline_euro4", "MEDIUM", 31).
emissionMap("165", "31", "gasoline_euro4", "MEDIUM", 32).
emissionMap("165", "[134b|133]", "gasoline_euro4", "MEDIUM", 31).
emissionMap("165", "None", "gasoline_euro4", "MEDIUM", 32).
emissionMap("166", "None", "gasoline_euro4", "MEDIUM", 0).
emissionMap("17", "71", "gasoline_euro4", "MEDIUM", 2).
emissionMap("17", "None", "gasoline_euro4", "MEDIUM", 2).
emissionMap("171", "161", "gasoline_euro4", "MEDIUM", 10).
emissionMap("171", "None", "gasoline_euro4", "MEDIUM", 10).
emissionMap("173", "58[0]", "gasoline_euro4", "MEDIUM", 12).
emissionMap("173", "62", "gasoline_euro4", "MEDIUM", 11).
emissionMap("173", "None", "gasoline_euro4", "MEDIUM", 12).
emissionMap("18", "69", "gasoline_euro4", "MEDIUM", 0).
emissionMap("18", "[17|71]", "gasoline_euro4", "MEDIUM", 0).
emissionMap("18", "None", "gasoline_euro4", "MEDIUM", 0).
emissionMap("180", "[136|135]", "gasoline_euro4", "MEDIUM", 29).
emissionMap("180", "[181|18]", "gasoline_euro4", "MEDIUM", 23).
emissionMap("180", "None", "gasoline_euro4", "MEDIUM", 28).
emissionMap("181", "18", "gasoline_euro4", "MEDIUM", 0).
emissionMap("181", "None", "gasoline_euro4", "MEDIUM", 0).
emissionMap("186", "[109[0]|109[1][0]+20003|109[1][1]]", "gasoline_euro4", "MEDIUM", 0).
emissionMap("186", "None", "gasoline_euro4", "MEDIUM", 0).
emissionMap("188", "[87[0]|20001+87[1][0]|87[1][1]]", "gasoline_euro4", "MEDIUM", 1).
emissionMap("188", "None", "gasoline_euro4", "MEDIUM", 1).
emissionMap("189[0]", "189[1][0]+20000", "gasoline_euro4", "MEDIUM", 0).
emissionMap("189[0]", "None", "gasoline_euro4", "MEDIUM", 0).
emissionMap("189[1][0]+20000", "189[1][1]", "gasoline_euro4", "MEDIUM", 0).
emissionMap("189[1][0]+20000", "None", "gasoline_euro4", "MEDIUM", 0).
emissionMap("189[1][1]", "188", "gasoline_euro4", "MEDIUM", 32).
emissionMap("189[1][1]", "191", "gasoline_euro4", "MEDIUM", 31).
emissionMap("189[1][1]", "None", "gasoline_euro4", "MEDIUM", 31).
emissionMap("19", "103", "gasoline_euro4", "MEDIUM", 14).
emissionMap("19", "[22|59]", "gasoline_euro4", "MEDIUM", 16).
emissionMap("19", "None", "gasoline_euro4", "MEDIUM", 15).
emissionMap("191", "69", "gasoline_euro4", "MEDIUM", 9).
emissionMap("191", "[17|71]", "gasoline_euro4", "MEDIUM", 8).
emissionMap("191", "None", "gasoline_euro4", "MEDIUM", 8).
emissionMap("194", "91", "gasoline_euro4", "MEDIUM", 8).
emissionMap("194", "None", "gasoline_euro4", "MEDIUM", 8).
emissionMap("195", "159", "gasoline_euro4", "MEDIUM", 8).
emissionMap("195", "61", "gasoline_euro4", "MEDIUM", 9).
emissionMap("195", "None", "gasoline_euro4", "MEDIUM", 9).
emissionMap("197", "[109[0]|109[1][0]+20003|109[1][1]]", "gasoline_euro4", "MEDIUM", 4).
emissionMap("197", "None", "gasoline_euro4", "MEDIUM", 4).
emissionMap("1b", "1", "gasoline_euro4", "MEDIUM", 1).
emissionMap("1b", "None", "gasoline_euro4", "MEDIUM", 1).
emissionMap("2", "4", "gasoline_euro4", "MEDIUM", 1).
emissionMap("2", "[202|34]", "gasoline_euro4", "MEDIUM", 0).
emissionMap("2", "None", "gasoline_euro4", "MEDIUM", 0).
emissionMap("20", "219", "gasoline_euro4", "MEDIUM", 0).
emissionMap("20", "None", "gasoline_euro4", "MEDIUM", 0).
emissionMap("200", "60", "gasoline_euro4", "MEDIUM", 0).
emissionMap("200", "None", "gasoline_euro4", "MEDIUM", 0).
emissionMap("20001+87[1][0]", "87[1][1]", "gasoline_euro4", "MEDIUM", 0).
emissionMap("20001+87[1][0]", "None", "gasoline_euro4", "MEDIUM", 0).
emissionMap("20002+89[1][0]", "89[1][1]", "gasoline_euro4", "MEDIUM", 0).
emissionMap("20002+89[1][0]", "None", "gasoline_euro4", "MEDIUM", 0).
emissionMap("201", "201c", "gasoline_euro4", "MEDIUM", 1).
emissionMap("201", "4c", "gasoline_euro4", "MEDIUM", 16).
emissionMap("201", "None", "gasoline_euro4", "MEDIUM", 3).
emissionMap("201c", "204a[0]", "gasoline_euro4", "MEDIUM", 0).
emissionMap("201c", "None", "gasoline_euro4", "MEDIUM", 0).
emissionMap("202", "34", "gasoline_euro4", "MEDIUM", 3).
emissionMap("202", "None", "gasoline_euro4", "MEDIUM", 3).
emissionMap("203[0]", "203[1]", "gasoline_euro4", "MEDIUM", 41).
emissionMap("203[0]", "None", "gasoline_euro4", "MEDIUM", 41).
emissionMap("203[1]", "203[1]b", "gasoline_euro4", "MEDIUM", 5).
emissionMap("203[1]", "None", "gasoline_euro4", "MEDIUM", 5).
emissionMap("203[1]b", "[202|34]", "gasoline_euro4", "MEDIUM", 0).
emissionMap("203[1]b", "None", "gasoline_euro4", "MEDIUM", 0).
emissionMap("204[1][0]", "204[1][1]", "gasoline_euro4", "MEDIUM", 0).
emissionMap("204[1][0]", "None", "gasoline_euro4", "MEDIUM", 0).
emissionMap("204[1][1]", "None", "gasoline_euro4", "MEDIUM", 0).
emissionMap("204a[0]", "124", "gasoline_euro4", "MEDIUM", 17).
emissionMap("204a[0]", "204b[0]", "gasoline_euro4", "MEDIUM", 16).
emissionMap("204a[0]", "None", "gasoline_euro4", "MEDIUM", 16).
emissionMap("204b[0]", "204[1][0]", "gasoline_euro4", "MEDIUM", 0).
emissionMap("204b[0]", "54", "gasoline_euro4", "MEDIUM", 0).
emissionMap("204b[0]", "None", "gasoline_euro4", "MEDIUM", 0).
emissionMap("206", "30", "gasoline_euro4", "MEDIUM", 0).
emissionMap("206", "32", "gasoline_euro4", "MEDIUM", 0).
emissionMap("206", "None", "gasoline_euro4", "MEDIUM", 0).
emissionMap("209", "None", "gasoline_euro4", "MEDIUM", 0).
emissionMap("210", "43[0]", "gasoline_euro4", "MEDIUM", 6).
emissionMap("210", "None", "gasoline_euro4", "MEDIUM", 6).
emissionMap("211", "45", "gasoline_euro4", "MEDIUM", 1).
emissionMap("211", "None", "gasoline_euro4", "MEDIUM", 1).
emissionMap("212", "10", "gasoline_euro4", "MEDIUM", 1).
emissionMap("212", "None", "gasoline_euro4", "MEDIUM", 1).
emissionMap("218", "36", "gasoline_euro4", "MEDIUM", 9).
emissionMap("218", "38", "gasoline_euro4", "MEDIUM", 11).
emissionMap("218", "None", "gasoline_euro4", "MEDIUM", 2).
emissionMap("219", "218", "gasoline_euro4", "MEDIUM", 0).
emissionMap("219", "None", "gasoline_euro4", "MEDIUM", 0).
emissionMap("21a", "21b", "gasoline_euro4", "MEDIUM", 0).
emissionMap("21a", "None", "gasoline_euro4", "MEDIUM", 0).
emissionMap("21b", "103", "gasoline_euro4", "MEDIUM", 11).
emissionMap("21b", "20", "gasoline_euro4", "MEDIUM", 8).
emissionMap("21b", "None", "gasoline_euro4", "MEDIUM", 8).
emissionMap("22", "59", "gasoline_euro4", "MEDIUM", 0).
emissionMap("22", "None", "gasoline_euro4", "MEDIUM", 0).
emissionMap("220", "19", "gasoline_euro4", "MEDIUM", 0).
emissionMap("220", "None", "gasoline_euro4", "MEDIUM", 0).
emissionMap("220b", "218", "gasoline_euro4", "MEDIUM", 2).
emissionMap("220b", "220", "gasoline_euro4", "MEDIUM", 3).
emissionMap("220b", "None", "gasoline_euro4", "MEDIUM", 3).
emissionMap("222", "None", "gasoline_euro4", "MEDIUM", 0).
emissionMap("224[0]", "222", "gasoline_euro4", "MEDIUM", 5).
emissionMap("224[0]", "224[1]", "gasoline_euro4", "MEDIUM", 5).
emissionMap("224[0]", "None", "gasoline_euro4", "MEDIUM", 4).
emissionMap("224[1]", "[136|135]", "gasoline_euro4", "MEDIUM", 5).
emissionMap("224[1]", "[181|18]", "gasoline_euro4", "MEDIUM", 9).
emissionMap("224[1]", "None", "gasoline_euro4", "MEDIUM", 6).
emissionMap("24", "20", "gasoline_euro4", "MEDIUM", 1).
emissionMap("24", "[22|59]", "gasoline_euro4", "MEDIUM", 1).
emissionMap("24", "None", "gasoline_euro4", "MEDIUM", 1).
emissionMap("25", "74", "gasoline_euro4", "MEDIUM", 29).
emissionMap("25", "[68|11]", "gasoline_euro4", "MEDIUM", 24).
emissionMap("25", "[80|127]", "gasoline_euro4", "MEDIUM", 24).
emissionMap("25", "None", "gasoline_euro4", "MEDIUM", 29).
emissionMap("26", "25", "gasoline_euro4", "MEDIUM", 8).
emissionMap("26", "None", "gasoline_euro4", "MEDIUM", 8).
emissionMap("28", "None", "gasoline_euro4", "MEDIUM", 0).
emissionMap("3", "2", "gasoline_euro4", "MEDIUM", 0).
emissionMap("3", "None", "gasoline_euro4", "MEDIUM", 0).
emissionMap("30", "None", "gasoline_euro4", "MEDIUM", 0).
emissionMap("31", "113", "gasoline_euro4", "MEDIUM", 0).
emissionMap("31", "201", "gasoline_euro4", "MEDIUM", 0).
emissionMap("31", "None", "gasoline_euro4", "MEDIUM", 0).
emissionMap("32", "35", "gasoline_euro4", "MEDIUM", 6).
emissionMap("32", "40", "gasoline_euro4", "MEDIUM", 6).
emissionMap("32", "None", "gasoline_euro4", "MEDIUM", 6).
emissionMap("33", "10", "gasoline_euro4", "MEDIUM", 6).
emissionMap("33", "[211|45]", "gasoline_euro4", "MEDIUM", 6).
emissionMap("33", "None", "gasoline_euro4", "MEDIUM", 6).
emissionMap("34", "113", "gasoline_euro4", "MEDIUM", 1).
emissionMap("34", "134", "gasoline_euro4", "MEDIUM", 4).
emissionMap("34", "None", "gasoline_euro4", "MEDIUM", 1).
emissionMap("35", "38", "gasoline_euro4", "MEDIUM", 15).
emissionMap("35", "None", "gasoline_euro4", "MEDIUM", 15).
emissionMap("36", "40", "gasoline_euro4", "MEDIUM", 1).
emissionMap("36", "None", "gasoline_euro4", "MEDIUM", 1).
emissionMap("37", "36", "gasoline_euro4", "MEDIUM", 11).
emissionMap("37", "None", "gasoline_euro4", "MEDIUM", 11).
emissionMap("38", "15", "gasoline_euro4", "MEDIUM", 6).
emissionMap("38", "33", "gasoline_euro4", "MEDIUM", 8).
emissionMap("38", "50", "gasoline_euro4", "MEDIUM", 5).
emissionMap("38", "None", "gasoline_euro4", "MEDIUM", 5).
emissionMap("39", "35", "gasoline_euro4", "MEDIUM", 0).
emissionMap("39", "None", "gasoline_euro4", "MEDIUM", 0).
emissionMap("4", "4c", "gasoline_euro4", "MEDIUM", 0).
emissionMap("4", "None", "gasoline_euro4", "MEDIUM", 0).
emissionMap("40", "153", "gasoline_euro4", "MEDIUM", 1).
emissionMap("40", "41", "gasoline_euro4", "MEDIUM", 1).
emissionMap("40", "93", "gasoline_euro4", "MEDIUM", 0).
emissionMap("40", "None", "gasoline_euro4", "MEDIUM", 0).
emissionMap("41", "160", "gasoline_euro4", "MEDIUM", 0).
emissionMap("41", "None", "gasoline_euro4", "MEDIUM", 0).
emissionMap("42", "153", "gasoline_euro4", "MEDIUM", 0).
emissionMap("42", "39", "gasoline_euro4", "MEDIUM", 0).
emissionMap("42", "None", "gasoline_euro4", "MEDIUM", 0).
emissionMap("43[0]", "118", "gasoline_euro4", "MEDIUM", 1).
emissionMap("43[0]", "43[1]", "gasoline_euro4", "MEDIUM", 0).
emissionMap("43[0]", "None", "gasoline_euro4", "MEDIUM", 0).
emissionMap("43[1]", "134", "gasoline_euro4", "MEDIUM", 6).
emissionMap("43[1]", "201", "gasoline_euro4", "MEDIUM", 3).
emissionMap("43[1]", "None", "gasoline_euro4", "MEDIUM", 4).
emissionMap("44", "36", "gasoline_euro4", "MEDIUM", 5).
emissionMap("44", "38", "gasoline_euro4", "MEDIUM", 3).
emissionMap("44", "None", "gasoline_euro4", "MEDIUM", 3).
emissionMap("45", "206", "gasoline_euro4", "MEDIUM", 0).
emissionMap("45", "44", "gasoline_euro4", "MEDIUM", 0).
emissionMap("45", "None", "gasoline_euro4", "MEDIUM", 0).
emissionMap("46", "113", "gasoline_euro4", "MEDIUM", 2).
emissionMap("46", "134", "gasoline_euro4", "MEDIUM", 1).
emissionMap("46", "201", "gasoline_euro4", "MEDIUM", 4).
emissionMap("46", "None", "gasoline_euro4", "MEDIUM", 1).
emissionMap("48", "160", "gasoline_euro4", "MEDIUM", 14).
emissionMap("48", "42", "gasoline_euro4", "MEDIUM", 13).
emissionMap("48", "None", "gasoline_euro4", "MEDIUM", 16).
emissionMap("49", "None", "gasoline_euro4", "MEDIUM", 0).
emissionMap("4c", "None", "gasoline_euro4", "MEDIUM", 0).
emissionMap("50", "19", "gasoline_euro4", "MEDIUM", 6).
emissionMap("50", "219", "gasoline_euro4", "MEDIUM", 6).
emissionMap("50", "None", "gasoline_euro4", "MEDIUM", 6).
emissionMap("51", "19", "gasoline_euro4", "MEDIUM", 3).
emissionMap("51", "219", "gasoline_euro4", "MEDIUM", 3).
emissionMap("51", "None", "gasoline_euro4", "MEDIUM", 2).
emissionMap("53[0]", "78[1][1]", "gasoline_euro4", "MEDIUM", 0).
emissionMap("53[0]", "(53[1][0]|53[1][1][0]|77[1][0])", "gasoline_euro4", "MEDIUM", 0).
emissionMap("53[0]", "(53[1][0]|53[1][1][0]|77[1][0]|77ab)", "gasoline_euro4", "MEDIUM", 0).
emissionMap("53[0]", "(53[1][0]|53[1][1][0]|77[1][0]|77ab|77bc)", "gasoline_euro4", "MEDIUM", 0).
emissionMap("53[0]", "(53[1][0]|53[1][1][0]|77[1][0]|77ab|77bc|77cd|53cd)", "gasoline_euro4", "MEDIUM", 0).
emissionMap("53[0]", "(53[1][0]|53[1][1][0]|77[1][0]|77ab|77bc|77cd)", "gasoline_euro4", "MEDIUM", 0).
emissionMap("53[0]", "(53[1][0])", "gasoline_euro4", "MEDIUM", 0).
emissionMap("53[0]", "(53[1][0]|53[1][1][0])", "gasoline_euro4", "MEDIUM", 0).
emissionMap("53[0]", "None", "gasoline_euro4", "MEDIUM", 0).
emissionMap("53[1][0]", "79", "gasoline_euro4", "MEDIUM", 0).
emissionMap("53[1][0]", "(53[1][1][0]|77[1][0])", "gasoline_euro4", "MEDIUM", 0).
emissionMap("53[1][0]", "(53[1][1][0]|77[1][0]|77ab)", "gasoline_euro4", "MEDIUM", 0).
emissionMap("53[1][0]", "(53[1][1][0]|77[1][0]|77ab|77bc)", "gasoline_euro4", "MEDIUM", 0).
emissionMap("53[1][0]", "(53[1][1][0]|77[1][0]|77ab|77bc|77cd|53cd)", "gasoline_euro4", "MEDIUM", 0).
emissionMap("53[1][0]", "(53[1][1][0]|77[1][0]|77ab|77bc|77cd)", "gasoline_euro4", "MEDIUM", 0).
emissionMap("53[1][0]", "(53[1][1][0]|77[1][0]|77ab|77bc|77cd|53cd|53[0])", "gasoline_euro4", "MEDIUM", 0).
emissionMap("53[1][0]", "(53[1][1][0])", "gasoline_euro4", "MEDIUM", 0).
emissionMap("53[1][0]", "None", "gasoline_euro4", "MEDIUM", 0).
emissionMap("53[1][1][0]", "(77[1][0])", "gasoline_euro4", "MEDIUM", 0).
emissionMap("53[1][1][0]", "(77[1][0]|77ab)", "gasoline_euro4", "MEDIUM", 0).
emissionMap("53[1][1][0]", "(77[1][0]|77ab|77bc)", "gasoline_euro4", "MEDIUM", 0).
emissionMap("53[1][1][0]", "(77[1][0]|77ab|77bc|77cd|53cd)", "gasoline_euro4", "MEDIUM", 0).
emissionMap("53[1][1][0]", "(77[1][0]|77ab|77bc|77cd)", "gasoline_euro4", "MEDIUM", 0).
emissionMap("53[1][1][0]", "(77[1][0]|77ab|77bc|77cd|53cd|53[0])", "gasoline_euro4", "MEDIUM", 0).
emissionMap("53[1][1][0]", "(77[1][0]|77ab|77bc|77cd|53cd|53[0]|53[1][0])", "gasoline_euro4", "MEDIUM", 0).
emissionMap("53[1][1][0]", "None", "gasoline_euro4", "MEDIUM", 0).
emissionMap("53cd", "82", "gasoline_euro4", "MEDIUM", 0).
emissionMap("53cd", "(53[0]|53[1][0]|53[1][1][0]|77[1][0])", "gasoline_euro4", "MEDIUM", 0).
emissionMap("53cd", "(53[0]|53[1][0]|53[1][1][0]|77[1][0]|77ab)", "gasoline_euro4", "MEDIUM", 0).
emissionMap("53cd", "(53[0]|53[1][0]|53[1][1][0]|77[1][0]|77ab|77bc)", "gasoline_euro4", "MEDIUM", 0).
emissionMap("53cd", "(53[0]|53[1][0]|53[1][1][0]|77[1][0]|77ab|77bc|77cd)", "gasoline_euro4", "MEDIUM", 0).
emissionMap("53cd", "(53[0])", "gasoline_euro4", "MEDIUM", 0).
emissionMap("53cd", "(53[0]|53[1][0])", "gasoline_euro4", "MEDIUM", 0).
emissionMap("53cd", "(53[0]|53[1][0]|53[1][1][0])", "gasoline_euro4", "MEDIUM", 0).
emissionMap("53cd", "None", "gasoline_euro4", "MEDIUM", 0).
emissionMap("54", "None", "gasoline_euro4", "MEDIUM", 0).
emissionMap("56a", "56b", "gasoline_euro4", "MEDIUM", 0).
emissionMap("56a", "m1", "gasoline_euro4", "MEDIUM", 0).
emissionMap("56a", "None", "gasoline_euro4", "MEDIUM", 0).
emissionMap("56b", "(77bc|77cd|53cd|53[0]|53[1][0]|53[1][1][0]|77[1][0])", "gasoline_euro4", "MEDIUM", 6).
emissionMap("56b", "(77bc)", "gasoline_euro4", "MEDIUM", 8).
emissionMap("56b", "(77bc|77cd|53cd)", "gasoline_euro4", "MEDIUM", 5).
emissionMap("56b", "(77bc|77cd)", "gasoline_euro4", "MEDIUM", 8).
emissionMap("56b", "(77bc|77cd|53cd|53[0])", "gasoline_euro4", "MEDIUM", 7).
emissionMap("56b", "(77bc|77cd|53cd|53[0]|53[1][0])", "gasoline_euro4", "MEDIUM", 7).
emissionMap("56b", "(77bc|77cd|53cd|53[0]|53[1][0]|53[1][1][0])", "gasoline_euro4", "MEDIUM", 7).
emissionMap("56b", "None", "gasoline_euro4", "MEDIUM", 8).
emissionMap("57[0]", "57[1]", "gasoline_euro4", "MEDIUM", 2).
emissionMap("57[0]", "None", "gasoline_euro4", "MEDIUM", 2).
emissionMap("57[1]", "62", "gasoline_euro4", "MEDIUM", 17).
emissionMap("57[1]", "None", "gasoline_euro4", "MEDIUM", 12).
emissionMap("58[0]", "58[1]", "gasoline_euro4", "MEDIUM", 0).
emissionMap("58[0]", "None", "gasoline_euro4", "MEDIUM", 0).
emissionMap("58[1]", "197", "gasoline_euro4", "MEDIUM", 4).
emissionMap("58[1]", "66", "gasoline_euro4", "MEDIUM", 3).
emissionMap("58[1]", "[200|60]", "gasoline_euro4", "MEDIUM", 3).
emissionMap("58[1]", "None", "gasoline_euro4", "MEDIUM", 3).
emissionMap("59", "(53cd|53[0]|53[1][0]|53[1][1][0]|77[1][0])", "gasoline_euro4", "MEDIUM", 9).
emissionMap("59", "(53cd|53[0]|53[1][0]|53[1][1][0]|77[1][0]|77ab)", "gasoline_euro4", "MEDIUM", 61).
emissionMap("59", "(53cd|53[0]|53[1][0]|53[1][1][0]|77[1][0]|77ab|77bc)", "gasoline_euro4", "MEDIUM", 10).
emissionMap("59", "(53cd)", "gasoline_euro4", "MEDIUM", 10).
emissionMap("59", "(53cd|53[0])", "gasoline_euro4", "MEDIUM", 9).
emissionMap("59", "(53cd|53[0]|53[1][0])", "gasoline_euro4", "MEDIUM", 9).
emissionMap("59", "(53cd|53[0]|53[1][0]|53[1][1][0])", "gasoline_euro4", "MEDIUM", 9).
emissionMap("59", "None", "gasoline_euro4", "MEDIUM", 9).
emissionMap("60", "None", "gasoline_euro4", "MEDIUM", 0).
emissionMap("61", "58[0]", "gasoline_euro4", "MEDIUM", 2).
emissionMap("61", "None", "gasoline_euro4", "MEDIUM", 2).
emissionMap("62", "159", "gasoline_euro4", "MEDIUM", 2).
emissionMap("62", "None", "gasoline_euro4", "MEDIUM", 2).
emissionMap("65", "197", "gasoline_euro4", "MEDIUM", 2).
emissionMap("65", "57[0]", "gasoline_euro4", "MEDIUM", 5).
emissionMap("65", "[200|60]", "gasoline_euro4", "MEDIUM", 1).
emissionMap("65", "None", "gasoline_euro4", "MEDIUM", 2).
emissionMap("66", "117", "gasoline_euro4", "MEDIUM", 7).
emissionMap("66", "119", "gasoline_euro4", "MEDIUM", 7).
emissionMap("66", "None", "gasoline_euro4", "MEDIUM", 9).
emissionMap("67", "[80|127]", "gasoline_euro4", "MEDIUM", 1).
emissionMap("67", "[26|25]", "gasoline_euro4", "MEDIUM", 1).
emissionMap("67", "None", "gasoline_euro4", "MEDIUM", 1).
emissionMap("68", "11", "gasoline_euro4", "MEDIUM", 0).
emissionMap("68", "None", "gasoline_euro4", "MEDIUM", 0).
emissionMap("69", "161", "gasoline_euro4", "MEDIUM", 2).
emissionMap("69", "None", "gasoline_euro4", "MEDIUM", 2).
emissionMap("71", "67", "gasoline_euro4", "MEDIUM", 3).
emissionMap("71", "84", "gasoline_euro4", "MEDIUM", 1).
emissionMap("71", "86", "gasoline_euro4", "MEDIUM", 1).
emissionMap("71", "None", "gasoline_euro4", "MEDIUM", 1).
emissionMap("72[0]", "72[1]", "gasoline_euro4", "MEDIUM", 25).
emissionMap("72[0]", "None", "gasoline_euro4", "MEDIUM", 0).
emissionMap("72[1]", "69", "gasoline_euro4", "MEDIUM", 8).
emissionMap("72[1]", "None", "gasoline_euro4", "MEDIUM", 7).
emissionMap("74", "72[1]", "gasoline_euro4", "MEDIUM", 14).
emissionMap("74", "None", "gasoline_euro4", "MEDIUM", 14).
emissionMap("75", "51", "gasoline_euro4", "MEDIUM", 2).
emissionMap("75", "None", "gasoline_euro4", "MEDIUM", 2).
emissionMap("77[1][0]", "77[1][1]", "gasoline_euro4", "MEDIUM", 0).
emissionMap("77[1][0]", "(77ab)", "gasoline_euro4", "MEDIUM", 0).
emissionMap("77[1][0]", "(77ab|77bc)", "gasoline_euro4", "MEDIUM", 0).
emissionMap("77[1][0]", "(77ab|77bc|77cd|53cd)", "gasoline_euro4", "MEDIUM", 0).
emissionMap("77[1][0]", "(77ab|77bc|77cd)", "gasoline_euro4", "MEDIUM", 0).
emissionMap("77[1][0]", "(77ab|77bc|77cd|53cd|53[0])", "gasoline_euro4", "MEDIUM", 0).
emissionMap("77[1][0]", "(77ab|77bc|77cd|53cd|53[0]|53[1][0])", "gasoline_euro4", "MEDIUM", 0).
emissionMap("77[1][0]", "(77ab|77bc|77cd|53cd|53[0]|53[1][0]|53[1][1][0])", "gasoline_euro4", "MEDIUM", 0).
emissionMap("77[1][0]", "None", "gasoline_euro4", "MEDIUM", 0).
emissionMap("77[1][1]", "None", "gasoline_euro4", "MEDIUM", 0).
emissionMap("77ab", "(77bc|77cd|53cd|53[0]|53[1][0]|53[1][1][0]|77[1][0])", "gasoline_euro4", "MEDIUM", 0).
emissionMap("77ab", "(77bc)", "gasoline_euro4", "MEDIUM", 0).
emissionMap("77ab", "(77bc|77cd|53cd)", "gasoline_euro4", "MEDIUM", 0).
emissionMap("77ab", "(77bc|77cd)", "gasoline_euro4", "MEDIUM", 0).
emissionMap("77ab", "(77bc|77cd|53cd|53[0])", "gasoline_euro4", "MEDIUM", 0).
emissionMap("77ab", "(77bc|77cd|53cd|53[0]|53[1][0])", "gasoline_euro4", "MEDIUM", 0).
emissionMap("77ab", "(77bc|77cd|53cd|53[0]|53[1][0]|53[1][1][0])", "gasoline_euro4", "MEDIUM", 0).
emissionMap("77ab", "None", "gasoline_euro4", "MEDIUM", 0).
emissionMap("77bc", "21a", "gasoline_euro4", "MEDIUM", 0).
emissionMap("77bc", "(77cd|53cd|53[0]|53[1][0]|53[1][1][0]|77[1][0])", "gasoline_euro4", "MEDIUM", 0).
emissionMap("77bc", "(77cd|53cd|53[0]|53[1][0]|53[1][1][0]|77[1][0]|77ab)", "gasoline_euro4", "MEDIUM", 0).
emissionMap("77bc", "(77cd|53cd)", "gasoline_euro4", "MEDIUM", 0).
emissionMap("77bc", "(77cd)", "gasoline_euro4", "MEDIUM", 0).
emissionMap("77bc", "(77cd|53cd|53[0])", "gasoline_euro4", "MEDIUM", 0).
emissionMap("77bc", "(77cd|53cd|53[0]|53[1][0])", "gasoline_euro4", "MEDIUM", 0).
emissionMap("77bc", "(77cd|53cd|53[0]|53[1][0]|53[1][1][0])", "gasoline_euro4", "MEDIUM", 0).
emissionMap("77bc", "None", "gasoline_euro4", "MEDIUM", 0).
emissionMap("77cd", "(53cd|53[0]|53[1][0]|53[1][1][0]|77[1][0])", "gasoline_euro4", "MEDIUM", 0).
emissionMap("77cd", "(53cd|53[0]|53[1][0]|53[1][1][0]|77[1][0]|77ab)", "gasoline_euro4", "MEDIUM", 0).
emissionMap("77cd", "(53cd|53[0]|53[1][0]|53[1][1][0]|77[1][0]|77ab|77bc)", "gasoline_euro4", "MEDIUM", 0).
emissionMap("77cd", "(53cd)", "gasoline_euro4", "MEDIUM", 0).
emissionMap("77cd", "(53cd|53[0])", "gasoline_euro4", "MEDIUM", 0).
emissionMap("77cd", "(53cd|53[0]|53[1][0])", "gasoline_euro4", "MEDIUM", 0).
emissionMap("77cd", "(53cd|53[0]|53[1][0]|53[1][1][0])", "gasoline_euro4", "MEDIUM", 0).
emissionMap("77cd", "None", "gasoline_euro4", "MEDIUM", 0).
emissionMap("78[0]", "56a", "gasoline_euro4", "MEDIUM", 8).
emissionMap("78[0]", "None", "gasoline_euro4", "MEDIUM", 8).
emissionMap("78[1][1]", "75", "gasoline_euro4", "MEDIUM", 0).
emissionMap("78[1][1]", "[189[0]|189[1][0]+20000|189[1][1]]", "gasoline_euro4", "MEDIUM", 0).
emissionMap("78[1][1]", "None", "gasoline_euro4", "MEDIUM", 0).
emissionMap("79", "74", "gasoline_euro4", "MEDIUM", 7).
emissionMap("79", "[68|11]", "gasoline_euro4", "MEDIUM", 7).
emissionMap("79", "[26|25]", "gasoline_euro4", "MEDIUM", 7).
emissionMap("79", "None", "gasoline_euro4", "MEDIUM", 7).
emissionMap("8", "9", "gasoline_euro4", "MEDIUM", 0).
emissionMap("8", "[13|104]", "gasoline_euro4", "MEDIUM", 0).
emissionMap("8", "None", "gasoline_euro4", "MEDIUM", 0).
emissionMap("80", "127", "gasoline_euro4", "MEDIUM", 1).
emissionMap("80", "None", "gasoline_euro4", "MEDIUM", 1).
emissionMap("82", "51", "gasoline_euro4", "MEDIUM", 0).
emissionMap("82", "None", "gasoline_euro4", "MEDIUM", 0).
emissionMap("83", "12", "gasoline_euro4", "MEDIUM", 0).
emissionMap("83", "None", "gasoline_euro4", "MEDIUM", 0).
emissionMap("84", "180", "gasoline_euro4", "MEDIUM", 10).
emissionMap("84", "[138|137]", "gasoline_euro4", "MEDIUM", 19).
emissionMap("84", "None", "gasoline_euro4", "MEDIUM", 16).
emissionMap("85", "67", "gasoline_euro4", "MEDIUM", 33).
emissionMap("85", "72[0]", "gasoline_euro4", "MEDIUM", 28).
emissionMap("85", "84", "gasoline_euro4", "MEDIUM", 25).
emissionMap("85", "None", "gasoline_euro4", "MEDIUM", 28).
emissionMap("86", "None", "gasoline_euro4", "MEDIUM", 0).
emissionMap("87[0]", "20001+87[1][0]", "gasoline_euro4", "MEDIUM", 0).
emissionMap("87[0]", "None", "gasoline_euro4", "MEDIUM", 0).
emissionMap("87[1][1]", "97", "gasoline_euro4", "MEDIUM", 0).
emissionMap("87[1][1]", "m90", "gasoline_euro4", "MEDIUM", 0).
emissionMap("87[1][1]", "None", "gasoline_euro4", "MEDIUM", 0).
emissionMap("89[0]", "20002+89[1][0]", "gasoline_euro4", "MEDIUM", 1).
emissionMap("89[0]", "None", "gasoline_euro4", "MEDIUM", 1).
emissionMap("89[1][1]", "91", "gasoline_euro4", "MEDIUM", 0).
emissionMap("89[1][1]", "None", "gasoline_euro4", "MEDIUM", 0).
emissionMap("9", "[211|45]", "gasoline_euro4", "MEDIUM", 0).
emissionMap("9", "None", "gasoline_euro4", "MEDIUM", 0).
emissionMap("91", "173", "gasoline_euro4", "MEDIUM", 0).
emissionMap("91", "186", "gasoline_euro4", "MEDIUM", 0).
emissionMap("91", "None", "gasoline_euro4", "MEDIUM", 0).
emissionMap("93", "28", "gasoline_euro4", "MEDIUM", 2).
emissionMap("93", "48", "gasoline_euro4", "MEDIUM", 2).
emissionMap("93", "None", "gasoline_euro4", "MEDIUM", 2).
emissionMap("97", "160", "gasoline_euro4", "MEDIUM", 26).
emissionMap("97", "42", "gasoline_euro4", "MEDIUM", 23).
emissionMap("97", "None", "gasoline_euro4", "MEDIUM", 28).
emissionMap("m1", "21b", "gasoline_euro4", "MEDIUM", 0).
emissionMap("m1", "None", "gasoline_euro4", "MEDIUM", 0).
emissionMap("m2", "54", "gasoline_euro4", "MEDIUM", 0).
emissionMap("m2", "None", "gasoline_euro4", "MEDIUM", 0).
emissionMap("m90", "171", "gasoline_euro4", "MEDIUM", 0).
emissionMap("m90", "[89[0]|20002+89[1][0]|89[1][1]]", "gasoline_euro4", "MEDIUM", 0).
emissionMap("m90", "None", "gasoline_euro4", "MEDIUM", 0).
emissionMap("[13|104]", "16", "gasoline_euro4", "MEDIUM", 0).
emissionMap("[13|104]", "24", "gasoline_euro4", "MEDIUM", 2).
emissionMap("[13|104]", "49", "gasoline_euro4", "MEDIUM", 1).
emissionMap("[13|104]", "None", "gasoline_euro4", "MEDIUM", 0).
emissionMap("[109[0]|109[1][0]+20003|109[1][1]]", "120", "gasoline_euro4", "MEDIUM", 0).
emissionMap("[109[0]|109[1][0]+20003|109[1][1]]", "[116|46]", "gasoline_euro4", "MEDIUM", 0).
emissionMap("[109[0]|109[1][0]+20003|109[1][1]]", "None", "gasoline_euro4", "MEDIUM", 0).
emissionMap("[68|11]", "72[0]", "gasoline_euro4", "MEDIUM", 3).
emissionMap("[68|11]", "84", "gasoline_euro4", "MEDIUM", 3).
emissionMap("[68|11]", "86", "gasoline_euro4", "MEDIUM", 0).
emissionMap("[68|11]", "None", "gasoline_euro4", "MEDIUM", 0).
emissionMap("[116|46]", "113", "gasoline_euro4", "MEDIUM", 12).
emissionMap("[116|46]", "134", "gasoline_euro4", "MEDIUM", 13).
emissionMap("[116|46]", "201", "gasoline_euro4", "MEDIUM", 12).
emissionMap("[116|46]", "None", "gasoline_euro4", "MEDIUM", 17).
emissionMap("[83|12]", "67", "gasoline_euro4", "MEDIUM", 6).
emissionMap("[83|12]", "86", "gasoline_euro4", "MEDIUM", 6).
emissionMap("[83|12]", "None", "gasoline_euro4", "MEDIUM", 6).
emissionMap("[80|127]", "(77[1][0])", "gasoline_euro4", "MEDIUM", 4).
emissionMap("[80|127]", "(77[1][0]|77ab)", "gasoline_euro4", "MEDIUM", 5).
emissionMap("[80|127]", "(77[1][0]|77ab|77bc)", "gasoline_euro4", "MEDIUM", 5).
emissionMap("[80|127]", "(77[1][0]|77ab|77bc|77cd|53cd)", "gasoline_euro4", "MEDIUM", 5).
emissionMap("[80|127]", "(77[1][0]|77ab|77bc|77cd)", "gasoline_euro4", "MEDIUM", 5).
emissionMap("[80|127]", "(77[1][0]|77ab|77bc|77cd|53cd|53[0])", "gasoline_euro4", "MEDIUM", 4).
emissionMap("[80|127]", "(77[1][0]|77ab|77bc|77cd|53cd|53[0]|53[1][0])", "gasoline_euro4", "MEDIUM", 4).
emissionMap("[80|127]", "None", "gasoline_euro4", "MEDIUM", 5).
emissionMap("[134b|133]", "31", "gasoline_euro4", "MEDIUM", 10).
emissionMap("[134b|133]", "None", "gasoline_euro4", "MEDIUM", 10).
emissionMap("[136|135]", "[181|18]", "gasoline_euro4", "MEDIUM", 61).
emissionMap("[136|135]", "None", "gasoline_euro4", "MEDIUM", 59).
emissionMap("[138|137]", "180", "gasoline_euro4", "MEDIUM", 14).
emissionMap("[138|137]", "None", "gasoline_euro4", "MEDIUM", 13).
emissionMap("[17|71]", "67", "gasoline_euro4", "MEDIUM", 14).
emissionMap("[17|71]", "84", "gasoline_euro4", "MEDIUM", 6).
emissionMap("[17|71]", "86", "gasoline_euro4", "MEDIUM", 5).
emissionMap("[17|71]", "None", "gasoline_euro4", "MEDIUM", 5).
emissionMap("[181|18]", "69", "gasoline_euro4", "MEDIUM", 6).
emissionMap("[181|18]", "[17|71]", "gasoline_euro4", "MEDIUM", 3).
emissionMap("[181|18]", "None", "gasoline_euro4", "MEDIUM", 1).
emissionMap("[189[0]|189[1][0]+20000|189[1][1]]", "188", "gasoline_euro4", "MEDIUM", 33).
emissionMap("[189[0]|189[1][0]+20000|189[1][1]]", "191", "gasoline_euro4", "MEDIUM", 32).
emissionMap("[189[0]|189[1][0]+20000|189[1][1]]", "None", "gasoline_euro4", "MEDIUM", 32).
emissionMap("[3|2]", "4", "gasoline_euro4", "MEDIUM", 1).
emissionMap("[3|2]", "[202|34]", "gasoline_euro4", "MEDIUM", 0).
emissionMap("[3|2]", "None", "gasoline_euro4", "MEDIUM", 0).
emissionMap("[200|60]", "None", "gasoline_euro4", "MEDIUM", 0).
emissionMap("[87[0]|20001+87[1][0]|87[1][1]]", "97", "gasoline_euro4", "MEDIUM", 0).
emissionMap("[87[0]|20001+87[1][0]|87[1][1]]", "m90", "gasoline_euro4", "MEDIUM", 0).
emissionMap("[87[0]|20001+87[1][0]|87[1][1]]", "None", "gasoline_euro4", "MEDIUM", 0).
emissionMap("[89[0]|20002+89[1][0]|89[1][1]]", "91", "gasoline_euro4", "MEDIUM", 2).
emissionMap("[89[0]|20002+89[1][0]|89[1][1]]", "None", "gasoline_euro4", "MEDIUM", 1).
emissionMap("[202|34]", "113", "gasoline_euro4", "MEDIUM", 7).
emissionMap("[202|34]", "134", "gasoline_euro4", "MEDIUM", 30).
emissionMap("[202|34]", "None", "gasoline_euro4", "MEDIUM", 6).
emissionMap("[210|43[0]]", "118", "gasoline_euro4", "MEDIUM", 33).
emissionMap("[210|43[0]]", "43[1]", "gasoline_euro4", "MEDIUM", 9).
emissionMap("[210|43[0]]", "None", "gasoline_euro4", "MEDIUM", 10).
emissionMap("[211|45]", "206", "gasoline_euro4", "MEDIUM", 2).
emissionMap("[211|45]", "44", "gasoline_euro4", "MEDIUM", 1).
emissionMap("[211|45]", "None", "gasoline_euro4", "MEDIUM", 2).
emissionMap("[22|59]", "(53cd|53[0]|53[1][0]|53[1][1][0]|77[1][0])", "gasoline_euro4", "MEDIUM", 9).
emissionMap("[22|59]", "(53cd|53[0]|53[1][0]|53[1][1][0]|77[1][0]|77ab)", "gasoline_euro4", "MEDIUM", 9).
emissionMap("[22|59]", "(53cd|53[0]|53[1][0]|53[1][1][0]|77[1][0]|77ab|77bc)", "gasoline_euro4", "MEDIUM", 16).
emissionMap("[22|59]", "(53cd)", "gasoline_euro4", "MEDIUM", 10).
emissionMap("[22|59]", "(53cd|53[0])", "gasoline_euro4", "MEDIUM", 10).
emissionMap("[22|59]", "(53cd|53[0]|53[1][0])", "gasoline_euro4", "MEDIUM", 14).
emissionMap("[22|59]", "(53cd|53[0]|53[1][0]|53[1][1][0])", "gasoline_euro4", "MEDIUM", 10).
emissionMap("[22|59]", "None", "gasoline_euro4", "MEDIUM", 12).
emissionMap("[26|25]", "74", "gasoline_euro4", "MEDIUM", 43).
emissionMap("[26|25]", "[68|11]", "gasoline_euro4", "MEDIUM", 48).
emissionMap("[26|25]", "[80|127]", "gasoline_euro4", "MEDIUM", 41).
emissionMap("[26|25]", "None", "gasoline_euro4", "MEDIUM", 43).
emissionMap("[78[0]|56a]", "56b", "gasoline_euro4", "MEDIUM", 8).
emissionMap("[78[0]|56a]", "m1", "gasoline_euro4", "MEDIUM", 8).
emissionMap("[78[0]|56a]", "None", "gasoline_euro4", "MEDIUM", 8).
emissionMap("(77ab)", "(77bc|77cd|53cd|53[0]|53[1][0]|53[1][1][0]|77[1][0])", "gasoline_euro4", "MEDIUM", 0).
emissionMap("(77ab)", "(77bc)", "gasoline_euro4", "MEDIUM", 0).
emissionMap("(77ab)", "(77bc|77cd|53cd)", "gasoline_euro4", "MEDIUM", 0).
emissionMap("(77ab)", "(77bc|77cd)", "gasoline_euro4", "MEDIUM", 0).
emissionMap("(77ab)", "(77bc|77cd|53cd|53[0])", "gasoline_euro4", "MEDIUM", 0).
emissionMap("(77ab)", "(77bc|77cd|53cd|53[0]|53[1][0])", "gasoline_euro4", "MEDIUM", 0).
emissionMap("(77ab)", "(77bc|77cd|53cd|53[0]|53[1][0]|53[1][1][0])", "gasoline_euro4", "MEDIUM", 0).
emissionMap("(77ab)", "None", "gasoline_euro4", "MEDIUM", 0).
emissionMap("(77ab|77bc)", "21a", "gasoline_euro4", "MEDIUM", 0).
emissionMap("(77ab|77bc)", "(77cd|53cd|53[0]|53[1][0]|53[1][1][0]|77[1][0])", "gasoline_euro4", "MEDIUM", 0).
emissionMap("(77ab|77bc)", "(77cd|53cd)", "gasoline_euro4", "MEDIUM", 0).
emissionMap("(77ab|77bc)", "(77cd)", "gasoline_euro4", "MEDIUM", 0).
emissionMap("(77ab|77bc)", "(77cd|53cd|53[0])", "gasoline_euro4", "MEDIUM", 0).
emissionMap("(77ab|77bc)", "(77cd|53cd|53[0]|53[1][0])", "gasoline_euro4", "MEDIUM", 0).
emissionMap("(77ab|77bc)", "(77cd|53cd|53[0]|53[1][0]|53[1][1][0])", "gasoline_euro4", "MEDIUM", 0).
emissionMap("(77ab|77bc)", "None", "gasoline_euro4", "MEDIUM", 0).
emissionMap("(77ab|77bc|77cd|53cd)", "82", "gasoline_euro4", "MEDIUM", 0).
emissionMap("(77ab|77bc|77cd|53cd)", "(53[0]|53[1][0]|53[1][1][0]|77[1][0])", "gasoline_euro4", "MEDIUM", 0).
emissionMap("(77ab|77bc|77cd|53cd)", "(53[0])", "gasoline_euro4", "MEDIUM", 0).
emissionMap("(77ab|77bc|77cd|53cd)", "(53[0]|53[1][0])", "gasoline_euro4", "MEDIUM", 0).
emissionMap("(77ab|77bc|77cd|53cd)", "(53[0]|53[1][0]|53[1][1][0])", "gasoline_euro4", "MEDIUM", 0).
emissionMap("(77ab|77bc|77cd|53cd)", "None", "gasoline_euro4", "MEDIUM", 0).
emissionMap("(77ab|77bc|77cd)", "(53cd|53[0]|53[1][0]|53[1][1][0]|77[1][0])", "gasoline_euro4", "MEDIUM", 0).
emissionMap("(77ab|77bc|77cd)", "(53cd)", "gasoline_euro4", "MEDIUM", 0).
emissionMap("(77ab|77bc|77cd)", "(53cd|53[0])", "gasoline_euro4", "MEDIUM", 0).
emissionMap("(77ab|77bc|77cd)", "(53cd|53[0]|53[1][0])", "gasoline_euro4", "MEDIUM", 0).
emissionMap("(77ab|77bc|77cd)", "(53cd|53[0]|53[1][0]|53[1][1][0])", "gasoline_euro4", "MEDIUM", 0).
emissionMap("(77ab|77bc|77cd)", "None", "gasoline_euro4", "MEDIUM", 0).
emissionMap("(77ab|77bc|77cd|53cd|53[0])", "78[1][1]", "gasoline_euro4", "MEDIUM", 0).
emissionMap("(77ab|77bc|77cd|53cd|53[0])", "(53[1][0]|53[1][1][0]|77[1][0])", "gasoline_euro4", "MEDIUM", 0).
emissionMap("(77ab|77bc|77cd|53cd|53[0])", "(53[1][0])", "gasoline_euro4", "MEDIUM", 0).
emissionMap("(77ab|77bc|77cd|53cd|53[0])", "(53[1][0]|53[1][1][0])", "gasoline_euro4", "MEDIUM", 0).
emissionMap("(77ab|77bc|77cd|53cd|53[0])", "None", "gasoline_euro4", "MEDIUM", 0).
emissionMap("(77ab|77bc|77cd|53cd|53[0]|53[1][0])", "79", "gasoline_euro4", "MEDIUM", 0).
emissionMap("(77ab|77bc|77cd|53cd|53[0]|53[1][0])", "(53[1][1][0]|77[1][0])", "gasoline_euro4", "MEDIUM", 0).
emissionMap("(77ab|77bc|77cd|53cd|53[0]|53[1][0])", "(53[1][1][0])", "gasoline_euro4", "MEDIUM", 0).
emissionMap("(77ab|77bc|77cd|53cd|53[0]|53[1][0])", "None", "gasoline_euro4", "MEDIUM", 0).
emissionMap("(77ab|77bc|77cd|53cd|53[0]|53[1][0]|53[1][1][0])", "(77[1][0])", "gasoline_euro4", "MEDIUM", 0).
emissionMap("(77ab|77bc|77cd|53cd|53[0]|53[1][0]|53[1][1][0])", "None", "gasoline_euro4", "MEDIUM", 0).
emissionMap("(77bc|77cd|53cd|53[0]|53[1][0]|53[1][1][0]|77[1][0])", "77[1][1]", "gasoline_euro4", "MEDIUM", 0).
emissionMap("(77bc|77cd|53cd|53[0]|53[1][0]|53[1][1][0]|77[1][0])", "(77ab)", "gasoline_euro4", "MEDIUM", 0).
emissionMap("(77bc|77cd|53cd|53[0]|53[1][0]|53[1][1][0]|77[1][0])", "None", "gasoline_euro4", "MEDIUM", 0).
emissionMap("(77bc)", "21a", "gasoline_euro4", "MEDIUM", 0).
emissionMap("(77bc)", "(77cd|53cd|53[0]|53[1][0]|53[1][1][0]|77[1][0])", "gasoline_euro4", "MEDIUM", 0).
emissionMap("(77bc)", "(77cd|53cd|53[0]|53[1][0]|53[1][1][0]|77[1][0]|77ab)", "gasoline_euro4", "MEDIUM", 0).
emissionMap("(77bc)", "(77cd|53cd)", "gasoline_euro4", "MEDIUM", 0).
emissionMap("(77bc)", "(77cd)", "gasoline_euro4", "MEDIUM", 0).
emissionMap("(77bc)", "(77cd|53cd|53[0])", "gasoline_euro4", "MEDIUM", 0).
emissionMap("(77bc)", "(77cd|53cd|53[0]|53[1][0])", "gasoline_euro4", "MEDIUM", 0).
emissionMap("(77bc)", "(77cd|53cd|53[0]|53[1][0]|53[1][1][0])", "gasoline_euro4", "MEDIUM", 0).
emissionMap("(77bc)", "None", "gasoline_euro4", "MEDIUM", 0).
emissionMap("(77bc|77cd|53cd)", "82", "gasoline_euro4", "MEDIUM", 0).
emissionMap("(77bc|77cd|53cd)", "(53[0]|53[1][0]|53[1][1][0]|77[1][0])", "gasoline_euro4", "MEDIUM", 0).
emissionMap("(77bc|77cd|53cd)", "(53[0]|53[1][0]|53[1][1][0]|77[1][0]|77ab)", "gasoline_euro4", "MEDIUM", 0).
emissionMap("(77bc|77cd|53cd)", "(53[0])", "gasoline_euro4", "MEDIUM", 0).
emissionMap("(77bc|77cd|53cd)", "(53[0]|53[1][0])", "gasoline_euro4", "MEDIUM", 0).
emissionMap("(77bc|77cd|53cd)", "(53[0]|53[1][0]|53[1][1][0])", "gasoline_euro4", "MEDIUM", 0).
emissionMap("(77bc|77cd|53cd)", "None", "gasoline_euro4", "MEDIUM", 0).
emissionMap("(77bc|77cd)", "(53cd|53[0]|53[1][0]|53[1][1][0]|77[1][0])", "gasoline_euro4", "MEDIUM", 0).
emissionMap("(77bc|77cd)", "(53cd|53[0]|53[1][0]|53[1][1][0]|77[1][0]|77ab)", "gasoline_euro4", "MEDIUM", 0).
emissionMap("(77bc|77cd)", "(53cd)", "gasoline_euro4", "MEDIUM", 0).
emissionMap("(77bc|77cd)", "(53cd|53[0])", "gasoline_euro4", "MEDIUM", 0).
emissionMap("(77bc|77cd)", "(53cd|53[0]|53[1][0])", "gasoline_euro4", "MEDIUM", 0).
emissionMap("(77bc|77cd)", "(53cd|53[0]|53[1][0]|53[1][1][0])", "gasoline_euro4", "MEDIUM", 0).
emissionMap("(77bc|77cd)", "None", "gasoline_euro4", "MEDIUM", 0).
emissionMap("(77bc|77cd|53cd|53[0])", "78[1][1]", "gasoline_euro4", "MEDIUM", 0).
emissionMap("(77bc|77cd|53cd|53[0])", "(53[1][0]|53[1][1][0]|77[1][0])", "gasoline_euro4", "MEDIUM", 0).
emissionMap("(77bc|77cd|53cd|53[0])", "(53[1][0]|53[1][1][0]|77[1][0]|77ab)", "gasoline_euro4", "MEDIUM", 0).
emissionMap("(77bc|77cd|53cd|53[0])", "(53[1][0])", "gasoline_euro4", "MEDIUM", 0).
emissionMap("(77bc|77cd|53cd|53[0])", "(53[1][0]|53[1][1][0])", "gasoline_euro4", "MEDIUM", 0).
emissionMap("(77bc|77cd|53cd|53[0])", "None", "gasoline_euro4", "MEDIUM", 0).
emissionMap("(77bc|77cd|53cd|53[0]|53[1][0])", "79", "gasoline_euro4", "MEDIUM", 0).
emissionMap("(77bc|77cd|53cd|53[0]|53[1][0])", "(53[1][1][0]|77[1][0])", "gasoline_euro4", "MEDIUM", 0).
emissionMap("(77bc|77cd|53cd|53[0]|53[1][0])", "(53[1][1][0]|77[1][0]|77ab)", "gasoline_euro4", "MEDIUM", 0).
emissionMap("(77bc|77cd|53cd|53[0]|53[1][0])", "(53[1][1][0])", "gasoline_euro4", "MEDIUM", 0).
emissionMap("(77bc|77cd|53cd|53[0]|53[1][0])", "None", "gasoline_euro4", "MEDIUM", 0).
emissionMap("(77bc|77cd|53cd|53[0]|53[1][0]|53[1][1][0])", "(77[1][0])", "gasoline_euro4", "MEDIUM", 0).
emissionMap("(77bc|77cd|53cd|53[0]|53[1][0]|53[1][1][0])", "(77[1][0]|77ab)", "gasoline_euro4", "MEDIUM", 0).
emissionMap("(77bc|77cd|53cd|53[0]|53[1][0]|53[1][1][0])", "None", "gasoline_euro4", "MEDIUM", 0).
emissionMap("(77cd|53cd|53[0]|53[1][0]|53[1][1][0]|77[1][0])", "77[1][1]", "gasoline_euro4", "MEDIUM", 0).
emissionMap("(77cd|53cd|53[0]|53[1][0]|53[1][1][0]|77[1][0])", "(77ab)", "gasoline_euro4", "MEDIUM", 0).
emissionMap("(77cd|53cd|53[0]|53[1][0]|53[1][1][0]|77[1][0])", "(77ab|77bc)", "gasoline_euro4", "MEDIUM", 0).
emissionMap("(77cd|53cd|53[0]|53[1][0]|53[1][1][0]|77[1][0])", "None", "gasoline_euro4", "MEDIUM", 0).
emissionMap("(77cd|53cd|53[0]|53[1][0]|53[1][1][0]|77[1][0]|77ab)", "(77bc)", "gasoline_euro4", "MEDIUM", 0).
emissionMap("(77cd|53cd|53[0]|53[1][0]|53[1][1][0]|77[1][0]|77ab)", "None", "gasoline_euro4", "MEDIUM", 0).
emissionMap("(77cd|53cd)", "82", "gasoline_euro4", "MEDIUM", 0).
emissionMap("(77cd|53cd)", "(53[0]|53[1][0]|53[1][1][0]|77[1][0])", "gasoline_euro4", "MEDIUM", 0).
emissionMap("(77cd|53cd)", "(53[0]|53[1][0]|53[1][1][0]|77[1][0]|77ab)", "gasoline_euro4", "MEDIUM", 0).
emissionMap("(77cd|53cd)", "(53[0]|53[1][0]|53[1][1][0]|77[1][0]|77ab|77bc)", "gasoline_euro4", "MEDIUM", 0).
emissionMap("(77cd|53cd)", "(53[0])", "gasoline_euro4", "MEDIUM", 0).
emissionMap("(77cd|53cd)", "(53[0]|53[1][0])", "gasoline_euro4", "MEDIUM", 0).
emissionMap("(77cd|53cd)", "(53[0]|53[1][0]|53[1][1][0])", "gasoline_euro4", "MEDIUM", 0).
emissionMap("(77cd|53cd)", "None", "gasoline_euro4", "MEDIUM", 0).
emissionMap("(77cd)", "(53cd|53[0]|53[1][0]|53[1][1][0]|77[1][0])", "gasoline_euro4", "MEDIUM", 0).
emissionMap("(77cd)", "(53cd|53[0]|53[1][0]|53[1][1][0]|77[1][0]|77ab)", "gasoline_euro4", "MEDIUM", 0).
emissionMap("(77cd)", "(53cd|53[0]|53[1][0]|53[1][1][0]|77[1][0]|77ab|77bc)", "gasoline_euro4", "MEDIUM", 0).
emissionMap("(77cd)", "(53cd)", "gasoline_euro4", "MEDIUM", 0).
emissionMap("(77cd)", "(53cd|53[0])", "gasoline_euro4", "MEDIUM", 0).
emissionMap("(77cd)", "(53cd|53[0]|53[1][0])", "gasoline_euro4", "MEDIUM", 0).
emissionMap("(77cd)", "(53cd|53[0]|53[1][0]|53[1][1][0])", "gasoline_euro4", "MEDIUM", 0).
emissionMap("(77cd)", "None", "gasoline_euro4", "MEDIUM", 0).
emissionMap("(77cd|53cd|53[0])", "78[1][1]", "gasoline_euro4", "MEDIUM", 0).
emissionMap("(77cd|53cd|53[0])", "(53[1][0]|53[1][1][0]|77[1][0])", "gasoline_euro4", "MEDIUM", 0).
emissionMap("(77cd|53cd|53[0])", "(53[1][0]|53[1][1][0]|77[1][0]|77ab)", "gasoline_euro4", "MEDIUM", 0).
emissionMap("(77cd|53cd|53[0])", "(53[1][0]|53[1][1][0]|77[1][0]|77ab|77bc)", "gasoline_euro4", "MEDIUM", 0).
emissionMap("(77cd|53cd|53[0])", "(53[1][0])", "gasoline_euro4", "MEDIUM", 0).
emissionMap("(77cd|53cd|53[0])", "(53[1][0]|53[1][1][0])", "gasoline_euro4", "MEDIUM", 0).
emissionMap("(77cd|53cd|53[0])", "None", "gasoline_euro4", "MEDIUM", 0).
emissionMap("(77cd|53cd|53[0]|53[1][0])", "79", "gasoline_euro4", "MEDIUM", 0).
emissionMap("(77cd|53cd|53[0]|53[1][0])", "(53[1][1][0]|77[1][0])", "gasoline_euro4", "MEDIUM", 0).
emissionMap("(77cd|53cd|53[0]|53[1][0])", "(53[1][1][0]|77[1][0]|77ab)", "gasoline_euro4", "MEDIUM", 0).
emissionMap("(77cd|53cd|53[0]|53[1][0])", "(53[1][1][0]|77[1][0]|77ab|77bc)", "gasoline_euro4", "MEDIUM", 0).
emissionMap("(77cd|53cd|53[0]|53[1][0])", "(53[1][1][0])", "gasoline_euro4", "MEDIUM", 0).
emissionMap("(77cd|53cd|53[0]|53[1][0])", "None", "gasoline_euro4", "MEDIUM", 0).
emissionMap("(77cd|53cd|53[0]|53[1][0]|53[1][1][0])", "(77[1][0])", "gasoline_euro4", "MEDIUM", 0).
emissionMap("(77cd|53cd|53[0]|53[1][0]|53[1][1][0])", "(77[1][0]|77ab)", "gasoline_euro4", "MEDIUM", 0).
emissionMap("(77cd|53cd|53[0]|53[1][0]|53[1][1][0])", "(77[1][0]|77ab|77bc)", "gasoline_euro4", "MEDIUM", 0).
emissionMap("(77cd|53cd|53[0]|53[1][0]|53[1][1][0])", "None", "gasoline_euro4", "MEDIUM", 0).
emissionMap("(53[0]|53[1][0]|53[1][1][0]|77[1][0])", "77[1][1]", "gasoline_euro4", "MEDIUM", 0).
emissionMap("(53[0]|53[1][0]|53[1][1][0]|77[1][0])", "(77ab)", "gasoline_euro4", "MEDIUM", 0).
emissionMap("(53[0]|53[1][0]|53[1][1][0]|77[1][0])", "(77ab|77bc)", "gasoline_euro4", "MEDIUM", 0).
emissionMap("(53[0]|53[1][0]|53[1][1][0]|77[1][0])", "(77ab|77bc|77cd|53cd)", "gasoline_euro4", "MEDIUM", 0).
emissionMap("(53[0]|53[1][0]|53[1][1][0]|77[1][0])", "(77ab|77bc|77cd)", "gasoline_euro4", "MEDIUM", 0).
emissionMap("(53[0]|53[1][0]|53[1][1][0]|77[1][0])", "None", "gasoline_euro4", "MEDIUM", 0).
emissionMap("(53[0]|53[1][0]|53[1][1][0]|77[1][0]|77ab)", "(77bc)", "gasoline_euro4", "MEDIUM", 0).
emissionMap("(53[0]|53[1][0]|53[1][1][0]|77[1][0]|77ab)", "(77bc|77cd|53cd)", "gasoline_euro4", "MEDIUM", 0).
emissionMap("(53[0]|53[1][0]|53[1][1][0]|77[1][0]|77ab)", "(77bc|77cd)", "gasoline_euro4", "MEDIUM", 0).
emissionMap("(53[0]|53[1][0]|53[1][1][0]|77[1][0]|77ab)", "None", "gasoline_euro4", "MEDIUM", 0).
emissionMap("(53[0]|53[1][0]|53[1][1][0]|77[1][0]|77ab|77bc)", "21a", "gasoline_euro4", "MEDIUM", 0).
emissionMap("(53[0]|53[1][0]|53[1][1][0]|77[1][0]|77ab|77bc)", "(77cd|53cd)", "gasoline_euro4", "MEDIUM", 0).
emissionMap("(53[0]|53[1][0]|53[1][1][0]|77[1][0]|77ab|77bc)", "(77cd)", "gasoline_euro4", "MEDIUM", 0).
emissionMap("(53[0]|53[1][0]|53[1][1][0]|77[1][0]|77ab|77bc)", "None", "gasoline_euro4", "MEDIUM", 0).
emissionMap("(53[0]|53[1][0]|53[1][1][0]|77[1][0]|77ab|77bc|77cd)", "(53cd)", "gasoline_euro4", "MEDIUM", 0).
emissionMap("(53[0]|53[1][0]|53[1][1][0]|77[1][0]|77ab|77bc|77cd)", "None", "gasoline_euro4", "MEDIUM", 0).
emissionMap("(53[0])", "78[1][1]", "gasoline_euro4", "MEDIUM", 0).
emissionMap("(53[0])", "(53[1][0]|53[1][1][0]|77[1][0])", "gasoline_euro4", "MEDIUM", 0).
emissionMap("(53[0])", "(53[1][0]|53[1][1][0]|77[1][0]|77ab)", "gasoline_euro4", "MEDIUM", 0).
emissionMap("(53[0])", "(53[1][0]|53[1][1][0]|77[1][0]|77ab|77bc)", "gasoline_euro4", "MEDIUM", 0).
emissionMap("(53[0])", "(53[1][0]|53[1][1][0]|77[1][0]|77ab|77bc|77cd|53cd)", "gasoline_euro4", "MEDIUM", 0).
emissionMap("(53[0])", "(53[1][0]|53[1][1][0]|77[1][0]|77ab|77bc|77cd)", "gasoline_euro4", "MEDIUM", 0).
emissionMap("(53[0])", "(53[1][0])", "gasoline_euro4", "MEDIUM", 0).
emissionMap("(53[0])", "(53[1][0]|53[1][1][0])", "gasoline_euro4", "MEDIUM", 0).
emissionMap("(53[0])", "None", "gasoline_euro4", "MEDIUM", 0).
emissionMap("(53[0]|53[1][0])", "79", "gasoline_euro4", "MEDIUM", 0).
emissionMap("(53[0]|53[1][0])", "(53[1][1][0]|77[1][0])", "gasoline_euro4", "MEDIUM", 0).
emissionMap("(53[0]|53[1][0])", "(53[1][1][0]|77[1][0]|77ab)", "gasoline_euro4", "MEDIUM", 0).
emissionMap("(53[0]|53[1][0])", "(53[1][1][0]|77[1][0]|77ab|77bc)", "gasoline_euro4", "MEDIUM", 0).
emissionMap("(53[0]|53[1][0])", "(53[1][1][0]|77[1][0]|77ab|77bc|77cd|53cd)", "gasoline_euro4", "MEDIUM", 0).
emissionMap("(53[0]|53[1][0])", "(53[1][1][0]|77[1][0]|77ab|77bc|77cd)", "gasoline_euro4", "MEDIUM", 0).
emissionMap("(53[0]|53[1][0])", "(53[1][1][0])", "gasoline_euro4", "MEDIUM", 0).
emissionMap("(53[0]|53[1][0])", "None", "gasoline_euro4", "MEDIUM", 0).
emissionMap("(53[0]|53[1][0]|53[1][1][0])", "(77[1][0])", "gasoline_euro4", "MEDIUM", 0).
emissionMap("(53[0]|53[1][0]|53[1][1][0])", "(77[1][0]|77ab)", "gasoline_euro4", "MEDIUM", 0).
emissionMap("(53[0]|53[1][0]|53[1][1][0])", "(77[1][0]|77ab|77bc)", "gasoline_euro4", "MEDIUM", 0).
emissionMap("(53[0]|53[1][0]|53[1][1][0])", "(77[1][0]|77ab|77bc|77cd|53cd)", "gasoline_euro4", "MEDIUM", 0).
emissionMap("(53[0]|53[1][0]|53[1][1][0])", "(77[1][0]|77ab|77bc|77cd)", "gasoline_euro4", "MEDIUM", 0).
emissionMap("(53[0]|53[1][0]|53[1][1][0])", "None", "gasoline_euro4", "MEDIUM", 0).
emissionMap("(53cd|53[0]|53[1][0]|53[1][1][0]|77[1][0])", "77[1][1]", "gasoline_euro4", "MEDIUM", 0).
emissionMap("(53cd|53[0]|53[1][0]|53[1][1][0]|77[1][0])", "(77ab)", "gasoline_euro4", "MEDIUM", 0).
emissionMap("(53cd|53[0]|53[1][0]|53[1][1][0]|77[1][0])", "(77ab|77bc)", "gasoline_euro4", "MEDIUM", 1).
emissionMap("(53cd|53[0]|53[1][0]|53[1][1][0]|77[1][0])", "(77ab|77bc|77cd)", "gasoline_euro4", "MEDIUM", 0).
emissionMap("(53cd|53[0]|53[1][0]|53[1][1][0]|77[1][0])", "None", "gasoline_euro4", "MEDIUM", 0).
emissionMap("(53cd|53[0]|53[1][0]|53[1][1][0]|77[1][0]|77ab)", "(77bc)", "gasoline_euro4", "MEDIUM", 0).
emissionMap("(53cd|53[0]|53[1][0]|53[1][1][0]|77[1][0]|77ab)", "(77bc|77cd)", "gasoline_euro4", "MEDIUM", 0).
emissionMap("(53cd|53[0]|53[1][0]|53[1][1][0]|77[1][0]|77ab)", "None", "gasoline_euro4", "MEDIUM", 0).
emissionMap("(53cd|53[0]|53[1][0]|53[1][1][0]|77[1][0]|77ab|77bc)", "21a", "gasoline_euro4", "MEDIUM", 0).
emissionMap("(53cd|53[0]|53[1][0]|53[1][1][0]|77[1][0]|77ab|77bc)", "(77cd)", "gasoline_euro4", "MEDIUM", 0).
emissionMap("(53cd|53[0]|53[1][0]|53[1][1][0]|77[1][0]|77ab|77bc)", "None", "gasoline_euro4", "MEDIUM", 0).
emissionMap("(53cd)", "82", "gasoline_euro4", "MEDIUM", 0).
emissionMap("(53cd)", "(53[0]|53[1][0]|53[1][1][0]|77[1][0])", "gasoline_euro4", "MEDIUM", 0).
emissionMap("(53cd)", "(53[0]|53[1][0]|53[1][1][0]|77[1][0]|77ab)", "gasoline_euro4", "MEDIUM", 0).
emissionMap("(53cd)", "(53[0]|53[1][0]|53[1][1][0]|77[1][0]|77ab|77bc)", "gasoline_euro4", "MEDIUM", 0).
emissionMap("(53cd)", "(53[0]|53[1][0]|53[1][1][0]|77[1][0]|77ab|77bc|77cd)", "gasoline_euro4", "MEDIUM", 0).
emissionMap("(53cd)", "(53[0])", "gasoline_euro4", "MEDIUM", 0).
emissionMap("(53cd)", "(53[0]|53[1][0])", "gasoline_euro4", "MEDIUM", 0).
emissionMap("(53cd)", "(53[0]|53[1][0]|53[1][1][0])", "gasoline_euro4", "MEDIUM", 0).
emissionMap("(53cd)", "None", "gasoline_euro4", "MEDIUM", 0).
emissionMap("(53cd|53[0])", "78[1][1]", "gasoline_euro4", "MEDIUM", 0).
emissionMap("(53cd|53[0])", "(53[1][0]|53[1][1][0]|77[1][0])", "gasoline_euro4", "MEDIUM", 0).
emissionMap("(53cd|53[0])", "(53[1][0]|53[1][1][0]|77[1][0]|77ab)", "gasoline_euro4", "MEDIUM", 0).
emissionMap("(53cd|53[0])", "(53[1][0]|53[1][1][0]|77[1][0]|77ab|77bc)", "gasoline_euro4", "MEDIUM", 0).
emissionMap("(53cd|53[0])", "(53[1][0]|53[1][1][0]|77[1][0]|77ab|77bc|77cd)", "gasoline_euro4", "MEDIUM", 0).
emissionMap("(53cd|53[0])", "(53[1][0])", "gasoline_euro4", "MEDIUM", 0).
emissionMap("(53cd|53[0])", "(53[1][0]|53[1][1][0])", "gasoline_euro4", "MEDIUM", 0).
emissionMap("(53cd|53[0])", "None", "gasoline_euro4", "MEDIUM", 0).
emissionMap("(53cd|53[0]|53[1][0])", "79", "gasoline_euro4", "MEDIUM", 0).
emissionMap("(53cd|53[0]|53[1][0])", "(53[1][1][0]|77[1][0])", "gasoline_euro4", "MEDIUM", 0).
emissionMap("(53cd|53[0]|53[1][0])", "(53[1][1][0]|77[1][0]|77ab)", "gasoline_euro4", "MEDIUM", 0).
emissionMap("(53cd|53[0]|53[1][0])", "(53[1][1][0]|77[1][0]|77ab|77bc)", "gasoline_euro4", "MEDIUM", 0).
emissionMap("(53cd|53[0]|53[1][0])", "(53[1][1][0]|77[1][0]|77ab|77bc|77cd)", "gasoline_euro4", "MEDIUM", 0).
emissionMap("(53cd|53[0]|53[1][0])", "(53[1][1][0])", "gasoline_euro4", "MEDIUM", 0).
emissionMap("(53cd|53[0]|53[1][0])", "None", "gasoline_euro4", "MEDIUM", 0).
emissionMap("(53cd|53[0]|53[1][0]|53[1][1][0])", "(77[1][0])", "gasoline_euro4", "MEDIUM", 0).
emissionMap("(53cd|53[0]|53[1][0]|53[1][1][0])", "(77[1][0]|77ab)", "gasoline_euro4", "MEDIUM", 0).
emissionMap("(53cd|53[0]|53[1][0]|53[1][1][0])", "(77[1][0]|77ab|77bc)", "gasoline_euro4", "MEDIUM", 0).
emissionMap("(53cd|53[0]|53[1][0]|53[1][1][0])", "(77[1][0]|77ab|77bc|77cd)", "gasoline_euro4", "MEDIUM", 0).
emissionMap("(53cd|53[0]|53[1][0]|53[1][1][0])", "None", "gasoline_euro4", "MEDIUM", 0).
emissionMap("(53[1][0]|53[1][1][0]|77[1][0])", "77[1][1]", "gasoline_euro4", "MEDIUM", 0).
emissionMap("(53[1][0]|53[1][1][0]|77[1][0])", "(77ab)", "gasoline_euro4", "MEDIUM", 0).
emissionMap("(53[1][0]|53[1][1][0]|77[1][0])", "(77ab|77bc)", "gasoline_euro4", "MEDIUM", 0).
emissionMap("(53[1][0]|53[1][1][0]|77[1][0])", "(77ab|77bc|77cd|53cd)", "gasoline_euro4", "MEDIUM", 0).
emissionMap("(53[1][0]|53[1][1][0]|77[1][0])", "(77ab|77bc|77cd)", "gasoline_euro4", "MEDIUM", 0).
emissionMap("(53[1][0]|53[1][1][0]|77[1][0])", "(77ab|77bc|77cd|53cd|53[0])", "gasoline_euro4", "MEDIUM", 0).
emissionMap("(53[1][0]|53[1][1][0]|77[1][0])", "None", "gasoline_euro4", "MEDIUM", 0).
emissionMap("(53[1][0]|53[1][1][0]|77[1][0]|77ab)", "(77bc)", "gasoline_euro4", "MEDIUM", 0).
emissionMap("(53[1][0]|53[1][1][0]|77[1][0]|77ab)", "(77bc|77cd|53cd)", "gasoline_euro4", "MEDIUM", 0).
emissionMap("(53[1][0]|53[1][1][0]|77[1][0]|77ab)", "(77bc|77cd)", "gasoline_euro4", "MEDIUM", 0).
emissionMap("(53[1][0]|53[1][1][0]|77[1][0]|77ab)", "(77bc|77cd|53cd|53[0])", "gasoline_euro4", "MEDIUM", 0).
emissionMap("(53[1][0]|53[1][1][0]|77[1][0]|77ab)", "None", "gasoline_euro4", "MEDIUM", 0).
emissionMap("(53[1][0]|53[1][1][0]|77[1][0]|77ab|77bc)", "21a", "gasoline_euro4", "MEDIUM", 0).
emissionMap("(53[1][0]|53[1][1][0]|77[1][0]|77ab|77bc)", "(77cd|53cd)", "gasoline_euro4", "MEDIUM", 0).
emissionMap("(53[1][0]|53[1][1][0]|77[1][0]|77ab|77bc)", "(77cd)", "gasoline_euro4", "MEDIUM", 0).
emissionMap("(53[1][0]|53[1][1][0]|77[1][0]|77ab|77bc)", "(77cd|53cd|53[0])", "gasoline_euro4", "MEDIUM", 0).
emissionMap("(53[1][0]|53[1][1][0]|77[1][0]|77ab|77bc)", "None", "gasoline_euro4", "MEDIUM", 0).
emissionMap("(53[1][0]|53[1][1][0]|77[1][0]|77ab|77bc|77cd|53cd)", "82", "gasoline_euro4", "MEDIUM", 0).
emissionMap("(53[1][0]|53[1][1][0]|77[1][0]|77ab|77bc|77cd|53cd)", "(53[0])", "gasoline_euro4", "MEDIUM", 0).
emissionMap("(53[1][0]|53[1][1][0]|77[1][0]|77ab|77bc|77cd|53cd)", "None", "gasoline_euro4", "MEDIUM", 0).
emissionMap("(53[1][0]|53[1][1][0]|77[1][0]|77ab|77bc|77cd)", "(53cd)", "gasoline_euro4", "MEDIUM", 0).
emissionMap("(53[1][0]|53[1][1][0]|77[1][0]|77ab|77bc|77cd)", "(53cd|53[0])", "gasoline_euro4", "MEDIUM", 0).
emissionMap("(53[1][0]|53[1][1][0]|77[1][0]|77ab|77bc|77cd)", "None", "gasoline_euro4", "MEDIUM", 0).
emissionMap("(53[1][0])", "79", "gasoline_euro4", "MEDIUM", 0).
emissionMap("(53[1][0])", "(53[1][1][0]|77[1][0])", "gasoline_euro4", "MEDIUM", 0).
emissionMap("(53[1][0])", "(53[1][1][0]|77[1][0]|77ab)", "gasoline_euro4", "MEDIUM", 0).
emissionMap("(53[1][0])", "(53[1][1][0]|77[1][0]|77ab|77bc)", "gasoline_euro4", "MEDIUM", 0).
emissionMap("(53[1][0])", "(53[1][1][0]|77[1][0]|77ab|77bc|77cd|53cd)", "gasoline_euro4", "MEDIUM", 0).
emissionMap("(53[1][0])", "(53[1][1][0]|77[1][0]|77ab|77bc|77cd)", "gasoline_euro4", "MEDIUM", 0).
emissionMap("(53[1][0])", "(53[1][1][0]|77[1][0]|77ab|77bc|77cd|53cd|53[0])", "gasoline_euro4", "MEDIUM", 0).
emissionMap("(53[1][0])", "(53[1][1][0])", "gasoline_euro4", "MEDIUM", 0).
emissionMap("(53[1][0])", "None", "gasoline_euro4", "MEDIUM", 0).
emissionMap("(53[1][0]|53[1][1][0])", "(77[1][0])", "gasoline_euro4", "MEDIUM", 0).
emissionMap("(53[1][0]|53[1][1][0])", "(77[1][0]|77ab)", "gasoline_euro4", "MEDIUM", 0).
emissionMap("(53[1][0]|53[1][1][0])", "(77[1][0]|77ab|77bc)", "gasoline_euro4", "MEDIUM", 0).
emissionMap("(53[1][0]|53[1][1][0])", "(77[1][0]|77ab|77bc|77cd|53cd)", "gasoline_euro4", "MEDIUM", 0).
emissionMap("(53[1][0]|53[1][1][0])", "(77[1][0]|77ab|77bc|77cd)", "gasoline_euro4", "MEDIUM", 0).
emissionMap("(53[1][0]|53[1][1][0])", "(77[1][0]|77ab|77bc|77cd|53cd|53[0])", "gasoline_euro4", "MEDIUM", 0).
emissionMap("(53[1][0]|53[1][1][0])", "None", "gasoline_euro4", "MEDIUM", 0).
emissionMap("(53[1][1][0]|77[1][0])", "77[1][1]", "gasoline_euro4", "MEDIUM", 0).
emissionMap("(53[1][1][0]|77[1][0])", "(77ab)", "gasoline_euro4", "MEDIUM", 0).
emissionMap("(53[1][1][0]|77[1][0])", "(77ab|77bc)", "gasoline_euro4", "MEDIUM", 0).
emissionMap("(53[1][1][0]|77[1][0])", "(77ab|77bc|77cd|53cd)", "gasoline_euro4", "MEDIUM", 0).
emissionMap("(53[1][1][0]|77[1][0])", "(77ab|77bc|77cd)", "gasoline_euro4", "MEDIUM", 0).
emissionMap("(53[1][1][0]|77[1][0])", "(77ab|77bc|77cd|53cd|53[0])", "gasoline_euro4", "MEDIUM", 0).
emissionMap("(53[1][1][0]|77[1][0])", "(77ab|77bc|77cd|53cd|53[0]|53[1][0])", "gasoline_euro4", "MEDIUM", 0).
emissionMap("(53[1][1][0]|77[1][0])", "None", "gasoline_euro4", "MEDIUM", 0).
emissionMap("(53[1][1][0]|77[1][0]|77ab)", "(77bc)", "gasoline_euro4", "MEDIUM", 0).
emissionMap("(53[1][1][0]|77[1][0]|77ab)", "(77bc|77cd|53cd)", "gasoline_euro4", "MEDIUM", 0).
emissionMap("(53[1][1][0]|77[1][0]|77ab)", "(77bc|77cd)", "gasoline_euro4", "MEDIUM", 0).
emissionMap("(53[1][1][0]|77[1][0]|77ab)", "(77bc|77cd|53cd|53[0])", "gasoline_euro4", "MEDIUM", 0).
emissionMap("(53[1][1][0]|77[1][0]|77ab)", "(77bc|77cd|53cd|53[0]|53[1][0])", "gasoline_euro4", "MEDIUM", 0).
emissionMap("(53[1][1][0]|77[1][0]|77ab)", "None", "gasoline_euro4", "MEDIUM", 0).
emissionMap("(53[1][1][0]|77[1][0]|77ab|77bc)", "21a", "gasoline_euro4", "MEDIUM", 0).
emissionMap("(53[1][1][0]|77[1][0]|77ab|77bc)", "(77cd|53cd)", "gasoline_euro4", "MEDIUM", 0).
emissionMap("(53[1][1][0]|77[1][0]|77ab|77bc)", "(77cd)", "gasoline_euro4", "MEDIUM", 0).
emissionMap("(53[1][1][0]|77[1][0]|77ab|77bc)", "(77cd|53cd|53[0])", "gasoline_euro4", "MEDIUM", 0).
emissionMap("(53[1][1][0]|77[1][0]|77ab|77bc)", "(77cd|53cd|53[0]|53[1][0])", "gasoline_euro4", "MEDIUM", 0).
emissionMap("(53[1][1][0]|77[1][0]|77ab|77bc)", "None", "gasoline_euro4", "MEDIUM", 0).
emissionMap("(53[1][1][0]|77[1][0]|77ab|77bc|77cd|53cd)", "82", "gasoline_euro4", "MEDIUM", 0).
emissionMap("(53[1][1][0]|77[1][0]|77ab|77bc|77cd|53cd)", "(53[0])", "gasoline_euro4", "MEDIUM", 0).
emissionMap("(53[1][1][0]|77[1][0]|77ab|77bc|77cd|53cd)", "(53[0]|53[1][0])", "gasoline_euro4", "MEDIUM", 0).
emissionMap("(53[1][1][0]|77[1][0]|77ab|77bc|77cd|53cd)", "None", "gasoline_euro4", "MEDIUM", 0).
emissionMap("(53[1][1][0]|77[1][0]|77ab|77bc|77cd)", "(53cd)", "gasoline_euro4", "MEDIUM", 0).
emissionMap("(53[1][1][0]|77[1][0]|77ab|77bc|77cd)", "(53cd|53[0])", "gasoline_euro4", "MEDIUM", 0).
emissionMap("(53[1][1][0]|77[1][0]|77ab|77bc|77cd)", "(53cd|53[0]|53[1][0])", "gasoline_euro4", "MEDIUM", 0).
emissionMap("(53[1][1][0]|77[1][0]|77ab|77bc|77cd)", "None", "gasoline_euro4", "MEDIUM", 0).
emissionMap("(53[1][1][0]|77[1][0]|77ab|77bc|77cd|53cd|53[0])", "78[1][1]", "gasoline_euro4", "MEDIUM", 0).
emissionMap("(53[1][1][0]|77[1][0]|77ab|77bc|77cd|53cd|53[0])", "(53[1][0])", "gasoline_euro4", "MEDIUM", 0).
emissionMap("(53[1][1][0]|77[1][0]|77ab|77bc|77cd|53cd|53[0])", "None", "gasoline_euro4", "MEDIUM", 0).
emissionMap("(53[1][1][0])", "(77[1][0])", "gasoline_euro4", "MEDIUM", 0).
emissionMap("(53[1][1][0])", "(77[1][0]|77ab)", "gasoline_euro4", "MEDIUM", 0).
emissionMap("(53[1][1][0])", "(77[1][0]|77ab|77bc)", "gasoline_euro4", "MEDIUM", 0).
emissionMap("(53[1][1][0])", "(77[1][0]|77ab|77bc|77cd|53cd)", "gasoline_euro4", "MEDIUM", 0).
emissionMap("(53[1][1][0])", "(77[1][0]|77ab|77bc|77cd)", "gasoline_euro4", "MEDIUM", 0).
emissionMap("(53[1][1][0])", "(77[1][0]|77ab|77bc|77cd|53cd|53[0])", "gasoline_euro4", "MEDIUM", 0).
emissionMap("(53[1][1][0])", "(77[1][0]|77ab|77bc|77cd|53cd|53[0]|53[1][0])", "gasoline_euro4", "MEDIUM", 0).
emissionMap("(53[1][1][0])", "None", "gasoline_euro4", "MEDIUM", 0).
emissionMap("(77[1][0])", "77[1][1]", "gasoline_euro4", "MEDIUM", 0).
emissionMap("(77[1][0])", "(77ab)", "gasoline_euro4", "MEDIUM", 0).
emissionMap("(77[1][0])", "(77ab|77bc)", "gasoline_euro4", "MEDIUM", 0).
emissionMap("(77[1][0])", "(77ab|77bc|77cd|53cd)", "gasoline_euro4", "MEDIUM", 0).
emissionMap("(77[1][0])", "(77ab|77bc|77cd)", "gasoline_euro4", "MEDIUM", 0).
emissionMap("(77[1][0])", "(77ab|77bc|77cd|53cd|53[0])", "gasoline_euro4", "MEDIUM", 0).
emissionMap("(77[1][0])", "(77ab|77bc|77cd|53cd|53[0]|53[1][0])", "gasoline_euro4", "MEDIUM", 0).
emissionMap("(77[1][0])", "(77ab|77bc|77cd|53cd|53[0]|53[1][0]|53[1][1][0])", "gasoline_euro4", "MEDIUM", 0).
emissionMap("(77[1][0])", "None", "gasoline_euro4", "MEDIUM", 0).
emissionMap("(77[1][0]|77ab)", "(77bc)", "gasoline_euro4", "MEDIUM", 0).
emissionMap("(77[1][0]|77ab)", "(77bc|77cd|53cd)", "gasoline_euro4", "MEDIUM", 0).
emissionMap("(77[1][0]|77ab)", "(77bc|77cd)", "gasoline_euro4", "MEDIUM", 0).
emissionMap("(77[1][0]|77ab)", "(77bc|77cd|53cd|53[0])", "gasoline_euro4", "MEDIUM", 0).
emissionMap("(77[1][0]|77ab)", "(77bc|77cd|53cd|53[0]|53[1][0])", "gasoline_euro4", "MEDIUM", 0).
emissionMap("(77[1][0]|77ab)", "(77bc|77cd|53cd|53[0]|53[1][0]|53[1][1][0])", "gasoline_euro4", "MEDIUM", 0).
emissionMap("(77[1][0]|77ab)", "None", "gasoline_euro4", "MEDIUM", 0).
emissionMap("(77[1][0]|77ab|77bc)", "21a", "gasoline_euro4", "MEDIUM", 0).
emissionMap("(77[1][0]|77ab|77bc)", "(77cd|53cd)", "gasoline_euro4", "MEDIUM", 0).
emissionMap("(77[1][0]|77ab|77bc)", "(77cd)", "gasoline_euro4", "MEDIUM", 0).
emissionMap("(77[1][0]|77ab|77bc)", "(77cd|53cd|53[0])", "gasoline_euro4", "MEDIUM", 0).
emissionMap("(77[1][0]|77ab|77bc)", "(77cd|53cd|53[0]|53[1][0])", "gasoline_euro4", "MEDIUM", 0).
emissionMap("(77[1][0]|77ab|77bc)", "(77cd|53cd|53[0]|53[1][0]|53[1][1][0])", "gasoline_euro4", "MEDIUM", 0).
emissionMap("(77[1][0]|77ab|77bc)", "None", "gasoline_euro4", "MEDIUM", 0).
emissionMap("(77[1][0]|77ab|77bc|77cd|53cd)", "82", "gasoline_euro4", "MEDIUM", 0).
emissionMap("(77[1][0]|77ab|77bc|77cd|53cd)", "(53[0])", "gasoline_euro4", "MEDIUM", 0).
emissionMap("(77[1][0]|77ab|77bc|77cd|53cd)", "(53[0]|53[1][0])", "gasoline_euro4", "MEDIUM", 0).
emissionMap("(77[1][0]|77ab|77bc|77cd|53cd)", "(53[0]|53[1][0]|53[1][1][0])", "gasoline_euro4", "MEDIUM", 0).
emissionMap("(77[1][0]|77ab|77bc|77cd|53cd)", "None", "gasoline_euro4", "MEDIUM", 0).
emissionMap("(77[1][0]|77ab|77bc|77cd)", "(53cd)", "gasoline_euro4", "MEDIUM", 0).
emissionMap("(77[1][0]|77ab|77bc|77cd)", "(53cd|53[0])", "gasoline_euro4", "MEDIUM", 0).
emissionMap("(77[1][0]|77ab|77bc|77cd)", "(53cd|53[0]|53[1][0])", "gasoline_euro4", "MEDIUM", 0).
emissionMap("(77[1][0]|77ab|77bc|77cd)", "(53cd|53[0]|53[1][0]|53[1][1][0])", "gasoline_euro4", "MEDIUM", 0).
emissionMap("(77[1][0]|77ab|77bc|77cd)", "None", "gasoline_euro4", "MEDIUM", 0).
emissionMap("(77[1][0]|77ab|77bc|77cd|53cd|53[0])", "78[1][1]", "gasoline_euro4", "MEDIUM", 0).
emissionMap("(77[1][0]|77ab|77bc|77cd|53cd|53[0])", "(53[1][0])", "gasoline_euro4", "MEDIUM", 0).
emissionMap("(77[1][0]|77ab|77bc|77cd|53cd|53[0])", "(53[1][0]|53[1][1][0])", "gasoline_euro4", "MEDIUM", 0).
emissionMap("(77[1][0]|77ab|77bc|77cd|53cd|53[0])", "None", "gasoline_euro4", "MEDIUM", 0).
emissionMap("(77[1][0]|77ab|77bc|77cd|53cd|53[0]|53[1][0])", "79", "gasoline_euro4", "MEDIUM", 0).
emissionMap("(77[1][0]|77ab|77bc|77cd|53cd|53[0]|53[1][0])", "(53[1][1][0])", "gasoline_euro4", "MEDIUM", 0).
emissionMap("(77[1][0]|77ab|77bc|77cd|53cd|53[0]|53[1][0])", "None", "gasoline_euro4", "MEDIUM", 0).
emissionMap("1", "204a[0]", "gasoline_euro4", "LIGHT", 0).
emissionMap("1", "None", "gasoline_euro4", "LIGHT", 0).
emissionMap("10", "[13|104]", "gasoline_euro4", "LIGHT", 1).
emissionMap("10", "None", "gasoline_euro4", "LIGHT", 1).
emissionMap("103", "14", "gasoline_euro4", "LIGHT", 1).
emissionMap("103", "16", "gasoline_euro4", "LIGHT", 0).
emissionMap("103", "49", "gasoline_euro4", "LIGHT", 3).
emissionMap("103", "None", "gasoline_euro4", "LIGHT", 0).
emissionMap("104", "16", "gasoline_euro4", "LIGHT", 0).
emissionMap("104", "24", "gasoline_euro4", "LIGHT", 0).
emissionMap("104", "49", "gasoline_euro4", "LIGHT", 2).
emissionMap("104", "None", "gasoline_euro4", "LIGHT", 0).
emissionMap("109[0]", "109[1][0]+20003", "gasoline_euro4", "LIGHT", 0).
emissionMap("109[0]", "None", "gasoline_euro4", "LIGHT", 0).
emissionMap("109[1][0]+20003", "109[1][1]", "gasoline_euro4", "LIGHT", 0).
emissionMap("109[1][0]+20003", "None", "gasoline_euro4", "LIGHT", 0).
emissionMap("109[1][1]", "120", "gasoline_euro4", "LIGHT", 0).
emissionMap("109[1][1]", "[116|46]", "gasoline_euro4", "LIGHT", 0).
emissionMap("109[1][1]", "None", "gasoline_euro4", "LIGHT", 0).
emissionMap("11", "72[0]", "gasoline_euro4", "LIGHT", 0).
emissionMap("11", "84", "gasoline_euro4", "LIGHT", 0).
emissionMap("11", "86", "gasoline_euro4", "LIGHT", 0).
emissionMap("11", "None", "gasoline_euro4", "LIGHT", 0).
emissionMap("113", "118", "gasoline_euro4", "LIGHT", 1).
emissionMap("113", "209", "gasoline_euro4", "LIGHT", 0).
emissionMap("113", "None", "gasoline_euro4", "LIGHT", 0).
emissionMap("114", "None", "gasoline_euro4", "LIGHT", 0).
emissionMap("116", "46", "gasoline_euro4", "LIGHT", 0).
emissionMap("116", "None", "gasoline_euro4", "LIGHT", 0).
emissionMap("117", "209", "gasoline_euro4", "LIGHT", 2).
emissionMap("117", "None", "gasoline_euro4", "LIGHT", 2).
emissionMap("118", "119", "gasoline_euro4", "LIGHT", 0).
emissionMap("118", "65", "gasoline_euro4", "LIGHT", 0).
emissionMap("118", "None", "gasoline_euro4", "LIGHT", 3).
emissionMap("119", "[116|46]", "gasoline_euro4", "LIGHT", 1).
emissionMap("119", "None", "gasoline_euro4", "LIGHT", 1).
emissionMap("12", "67", "gasoline_euro4", "LIGHT", 0).
emissionMap("12", "86", "gasoline_euro4", "LIGHT", 0).
emissionMap("12", "None", "gasoline_euro4", "LIGHT", 0).
emissionMap("120", "117", "gasoline_euro4", "LIGHT", 9).
emissionMap("120", "65", "gasoline_euro4", "LIGHT", 11).
emissionMap("120", "None", "gasoline_euro4", "LIGHT", 11).
emissionMap("122", "1b", "gasoline_euro4", "LIGHT", 1).
emissionMap("122", "[3|2]", "gasoline_euro4", "LIGHT", 1).
emissionMap("122", "None", "gasoline_euro4", "LIGHT", 1).
emissionMap("124", "None", "gasoline_euro4", "LIGHT", 0).
emissionMap("127", "(77[1][0])", "gasoline_euro4", "LIGHT", 0).
emissionMap("127", "(77[1][0]|77ab)", "gasoline_euro4", "LIGHT", 0).
emissionMap("127", "(77[1][0]|77ab|77bc)", "gasoline_euro4", "LIGHT", 0).
emissionMap("127", "(77[1][0]|77ab|77bc|77cd|53cd)", "gasoline_euro4", "LIGHT", 0).
emissionMap("127", "(77[1][0]|77ab|77bc|77cd)", "gasoline_euro4", "LIGHT", 0).
emissionMap("127", "(77[1][0]|77ab|77bc|77cd|53cd|53[0])", "gasoline_euro4", "LIGHT", 0).
emissionMap("127", "(77[1][0]|77ab|77bc|77cd|53cd|53[0]|53[1][0])", "gasoline_euro4", "LIGHT", 0).
emissionMap("127", "None", "gasoline_euro4", "LIGHT", 0).
emissionMap("13", "104", "gasoline_euro4", "LIGHT", 0).
emissionMap("13", "None", "gasoline_euro4", "LIGHT", 0).
emissionMap("131", "117", "gasoline_euro4", "LIGHT", 8).
emissionMap("131", "119", "gasoline_euro4", "LIGHT", 9).
emissionMap("131", "65", "gasoline_euro4", "LIGHT", 31).
emissionMap("131", "None", "gasoline_euro4", "LIGHT", 28).
emissionMap("133", "31", "gasoline_euro4", "LIGHT", 1).
emissionMap("133", "None", "gasoline_euro4", "LIGHT", 1).
emissionMap("134", "[134b|133]", "gasoline_euro4", "LIGHT", 0).
emissionMap("134", "None", "gasoline_euro4", "LIGHT", 0).
emissionMap("134b", "133", "gasoline_euro4", "LIGHT", 1).
emissionMap("134b", "None", "gasoline_euro4", "LIGHT", 1).
emissionMap("135", "[181|18]", "gasoline_euro4", "LIGHT", 21).
emissionMap("135", "None", "gasoline_euro4", "LIGHT", 20).
emissionMap("136", "135", "gasoline_euro4", "LIGHT", 1).
emissionMap("136", "None", "gasoline_euro4", "LIGHT", 1).
emissionMap("137", "180", "gasoline_euro4", "LIGHT", 1).
emissionMap("137", "None", "gasoline_euro4", "LIGHT", 1).
emissionMap("138", "137", "gasoline_euro4", "LIGHT", 1).
emissionMap("138", "None", "gasoline_euro4", "LIGHT", 1).
emissionMap("14", "9", "gasoline_euro4", "LIGHT", 1).
emissionMap("14", "None", "gasoline_euro4", "LIGHT", 1).
emissionMap("15", "14", "gasoline_euro4", "LIGHT", 1).
emissionMap("15", "24", "gasoline_euro4", "LIGHT", 1).
emissionMap("15", "49", "gasoline_euro4", "LIGHT", 1).
emissionMap("15", "None", "gasoline_euro4", "LIGHT", 1).
emissionMap("153", "[87[0]|20001+87[1][0]|87[1][1]]", "gasoline_euro4", "LIGHT", 4).
emissionMap("153", "None", "gasoline_euro4", "LIGHT", 3).
emissionMap("159", "42", "gasoline_euro4", "LIGHT", 1).
emissionMap("159", "None", "gasoline_euro4", "LIGHT", 1).
emissionMap("16", "37", "gasoline_euro4", "LIGHT", 0).
emissionMap("16", "None", "gasoline_euro4", "LIGHT", 0).
emissionMap("160", "61", "gasoline_euro4", "LIGHT", 8).
emissionMap("160", "None", "gasoline_euro4", "LIGHT", 8).
emissionMap("161", "122", "gasoline_euro4", "LIGHT", 0).
emissionMap("161", "194", "gasoline_euro4", "LIGHT", 2).
emissionMap("161", "None", "gasoline_euro4", "LIGHT", 0).
emissionMap("165", "166", "gasoline_euro4", "LIGHT", 11).
emissionMap("165", "31", "gasoline_euro4", "LIGHT", 4).
emissionMap("165", "[134b|133]", "gasoline_euro4", "LIGHT", 15).
emissionMap("165", "None", "gasoline_euro4", "LIGHT", 3).
emissionMap("166", "None", "gasoline_euro4", "LIGHT", 0).
emissionMap("17", "71", "gasoline_euro4", "LIGHT", 0).
emissionMap("17", "None", "gasoline_euro4", "LIGHT", 0).
emissionMap("171", "161", "gasoline_euro4", "LIGHT", 3).
emissionMap("171", "None", "gasoline_euro4", "LIGHT", 3).
emissionMap("173", "58[0]", "gasoline_euro4", "LIGHT", 2).
emissionMap("173", "62", "gasoline_euro4", "LIGHT", 5).
emissionMap("173", "None", "gasoline_euro4", "LIGHT", 2).
emissionMap("18", "69", "gasoline_euro4", "LIGHT", 0).
emissionMap("18", "[17|71]", "gasoline_euro4", "LIGHT", 0).
emissionMap("18", "None", "gasoline_euro4", "LIGHT", 0).
emissionMap("180", "[136|135]", "gasoline_euro4", "LIGHT", 4).
emissionMap("180", "[181|18]", "gasoline_euro4", "LIGHT", 3).
emissionMap("180", "None", "gasoline_euro4", "LIGHT", 3).
emissionMap("181", "18", "gasoline_euro4", "LIGHT", 0).
emissionMap("181", "None", "gasoline_euro4", "LIGHT", 0).
emissionMap("186", "[109[0]|109[1][0]+20003|109[1][1]]", "gasoline_euro4", "LIGHT", 0).
emissionMap("186", "None", "gasoline_euro4", "LIGHT", 0).
emissionMap("188", "[87[0]|20001+87[1][0]|87[1][1]]", "gasoline_euro4", "LIGHT", 0).
emissionMap("188", "None", "gasoline_euro4", "LIGHT", 0).
emissionMap("189[0]", "189[1][0]+20000", "gasoline_euro4", "LIGHT", 0).
emissionMap("189[0]", "None", "gasoline_euro4", "LIGHT", 0).
emissionMap("189[1][0]+20000", "189[1][1]", "gasoline_euro4", "LIGHT", 0).
emissionMap("189[1][0]+20000", "None", "gasoline_euro4", "LIGHT", 0).
emissionMap("189[1][1]", "188", "gasoline_euro4", "LIGHT", 3).
emissionMap("189[1][1]", "191", "gasoline_euro4", "LIGHT", 3).
emissionMap("189[1][1]", "None", "gasoline_euro4", "LIGHT", 3).
emissionMap("19", "103", "gasoline_euro4", "LIGHT", 7).
emissionMap("19", "[22|59]", "gasoline_euro4", "LIGHT", 8).
emissionMap("19", "None", "gasoline_euro4", "LIGHT", 7).
emissionMap("191", "69", "gasoline_euro4", "LIGHT", 2).
emissionMap("191", "[17|71]", "gasoline_euro4", "LIGHT", 2).
emissionMap("191", "None", "gasoline_euro4", "LIGHT", 2).
emissionMap("194", "91", "gasoline_euro4", "LIGHT", 3).
emissionMap("194", "None", "gasoline_euro4", "LIGHT", 3).
emissionMap("195", "159", "gasoline_euro4", "LIGHT", 1).
emissionMap("195", "61", "gasoline_euro4", "LIGHT", 1).
emissionMap("195", "None", "gasoline_euro4", "LIGHT", 1).
emissionMap("197", "[109[0]|109[1][0]+20003|109[1][1]]", "gasoline_euro4", "LIGHT", 1).
emissionMap("197", "None", "gasoline_euro4", "LIGHT", 1).
emissionMap("1b", "1", "gasoline_euro4", "LIGHT", 0).
emissionMap("1b", "None", "gasoline_euro4", "LIGHT", 0).
emissionMap("2", "4", "gasoline_euro4", "LIGHT", 0).
emissionMap("2", "[202|34]", "gasoline_euro4", "LIGHT", 0).
emissionMap("2", "None", "gasoline_euro4", "LIGHT", 0).
emissionMap("20", "219", "gasoline_euro4", "LIGHT", 0).
emissionMap("20", "None", "gasoline_euro4", "LIGHT", 0).
emissionMap("200", "60", "gasoline_euro4", "LIGHT", 0).
emissionMap("200", "None", "gasoline_euro4", "LIGHT", 0).
emissionMap("20001+87[1][0]", "87[1][1]", "gasoline_euro4", "LIGHT", 0).
emissionMap("20001+87[1][0]", "None", "gasoline_euro4", "LIGHT", 0).
emissionMap("20002+89[1][0]", "89[1][1]", "gasoline_euro4", "LIGHT", 0).
emissionMap("20002+89[1][0]", "None", "gasoline_euro4", "LIGHT", 0).
emissionMap("201", "201c", "gasoline_euro4", "LIGHT", 1).
emissionMap("201", "4c", "gasoline_euro4", "LIGHT", 4).
emissionMap("201", "None", "gasoline_euro4", "LIGHT", 1).
emissionMap("201c", "204a[0]", "gasoline_euro4", "LIGHT", 0).
emissionMap("201c", "None", "gasoline_euro4", "LIGHT", 0).
emissionMap("202", "34", "gasoline_euro4", "LIGHT", 1).
emissionMap("202", "None", "gasoline_euro4", "LIGHT", 1).
emissionMap("203[0]", "203[1]", "gasoline_euro4", "LIGHT", 8).
emissionMap("203[0]", "None", "gasoline_euro4", "LIGHT", 8).
emissionMap("203[1]", "203[1]b", "gasoline_euro4", "LIGHT", 2).
emissionMap("203[1]", "None", "gasoline_euro4", "LIGHT", 2).
emissionMap("203[1]b", "[202|34]", "gasoline_euro4", "LIGHT", 0).
emissionMap("203[1]b", "None", "gasoline_euro4", "LIGHT", 0).
emissionMap("204[1][0]", "204[1][1]", "gasoline_euro4", "LIGHT", 0).
emissionMap("204[1][0]", "None", "gasoline_euro4", "LIGHT", 0).
emissionMap("204[1][1]", "None", "gasoline_euro4", "LIGHT", 0).
emissionMap("204a[0]", "124", "gasoline_euro4", "LIGHT", 4).
emissionMap("204a[0]", "204b[0]", "gasoline_euro4", "LIGHT", 3).
emissionMap("204a[0]", "None", "gasoline_euro4", "LIGHT", 4).
emissionMap("204b[0]", "204[1][0]", "gasoline_euro4", "LIGHT", 0).
emissionMap("204b[0]", "54", "gasoline_euro4", "LIGHT", 0).
emissionMap("204b[0]", "None", "gasoline_euro4", "LIGHT", 0).
emissionMap("206", "30", "gasoline_euro4", "LIGHT", 0).
emissionMap("206", "32", "gasoline_euro4", "LIGHT", 0).
emissionMap("206", "None", "gasoline_euro4", "LIGHT", 0).
emissionMap("209", "None", "gasoline_euro4", "LIGHT", 0).
emissionMap("210", "43[0]", "gasoline_euro4", "LIGHT", 2).
emissionMap("210", "None", "gasoline_euro4", "LIGHT", 3).
emissionMap("211", "45", "gasoline_euro4", "LIGHT", 0).
emissionMap("211", "None", "gasoline_euro4", "LIGHT", 0).
emissionMap("212", "10", "gasoline_euro4", "LIGHT", 0).
emissionMap("212", "None", "gasoline_euro4", "LIGHT", 0).
emissionMap("218", "36", "gasoline_euro4", "LIGHT", 0).
emissionMap("218", "38", "gasoline_euro4", "LIGHT", 3).
emissionMap("218", "None", "gasoline_euro4", "LIGHT", 0).
emissionMap("219", "218", "gasoline_euro4", "LIGHT", 0).
emissionMap("219", "None", "gasoline_euro4", "LIGHT", 0).
emissionMap("21a", "21b", "gasoline_euro4", "LIGHT", 0).
emissionMap("21a", "None", "gasoline_euro4", "LIGHT", 0).
emissionMap("21b", "103", "gasoline_euro4", "LIGHT", 1).
emissionMap("21b", "20", "gasoline_euro4", "LIGHT", 1).
emissionMap("21b", "None", "gasoline_euro4", "LIGHT", 1).
emissionMap("22", "59", "gasoline_euro4", "LIGHT", 0).
emissionMap("22", "None", "gasoline_euro4", "LIGHT", 0).
emissionMap("220", "19", "gasoline_euro4", "LIGHT", 0).
emissionMap("220", "None", "gasoline_euro4", "LIGHT", 0).
emissionMap("220b", "218", "gasoline_euro4", "LIGHT", 1).
emissionMap("220b", "220", "gasoline_euro4", "LIGHT", 0).
emissionMap("220b", "None", "gasoline_euro4", "LIGHT", 1).
emissionMap("222", "None", "gasoline_euro4", "LIGHT", 0).
emissionMap("224[0]", "222", "gasoline_euro4", "LIGHT", 2).
emissionMap("224[0]", "224[1]", "gasoline_euro4", "LIGHT", 2).
emissionMap("224[0]", "None", "gasoline_euro4", "LIGHT", 2).
emissionMap("224[1]", "[136|135]", "gasoline_euro4", "LIGHT", 2).
emissionMap("224[1]", "[181|18]", "gasoline_euro4", "LIGHT", 2).
emissionMap("224[1]", "None", "gasoline_euro4", "LIGHT", 2).
emissionMap("24", "20", "gasoline_euro4", "LIGHT", 0).
emissionMap("24", "[22|59]", "gasoline_euro4", "LIGHT", 0).
emissionMap("24", "None", "gasoline_euro4", "LIGHT", 0).
emissionMap("25", "74", "gasoline_euro4", "LIGHT", 12).
emissionMap("25", "[68|11]", "gasoline_euro4", "LIGHT", 11).
emissionMap("25", "[80|127]", "gasoline_euro4", "LIGHT", 11).
emissionMap("25", "None", "gasoline_euro4", "LIGHT", 12).
emissionMap("26", "25", "gasoline_euro4", "LIGHT", 3).
emissionMap("26", "None", "gasoline_euro4", "LIGHT", 3).
emissionMap("28", "None", "gasoline_euro4", "LIGHT", 0).
emissionMap("3", "2", "gasoline_euro4", "LIGHT", 0).
emissionMap("3", "None", "gasoline_euro4", "LIGHT", 0).
emissionMap("30", "None", "gasoline_euro4", "LIGHT", 0).
emissionMap("31", "113", "gasoline_euro4", "LIGHT", 0).
emissionMap("31", "201", "gasoline_euro4", "LIGHT", 0).
emissionMap("31", "None", "gasoline_euro4", "LIGHT", 0).
emissionMap("32", "35", "gasoline_euro4", "LIGHT", 2).
emissionMap("32", "40", "gasoline_euro4", "LIGHT", 2).
emissionMap("32", "None", "gasoline_euro4", "LIGHT", 2).
emissionMap("33", "10", "gasoline_euro4", "LIGHT", 2).
emissionMap("33", "[211|45]", "gasoline_euro4", "LIGHT", 3).
emissionMap("33", "None", "gasoline_euro4", "LIGHT", 2).
emissionMap("34", "113", "gasoline_euro4", "LIGHT", 0).
emissionMap("34", "134", "gasoline_euro4", "LIGHT", 1).
emissionMap("34", "None", "gasoline_euro4", "LIGHT", 0).
emissionMap("35", "38", "gasoline_euro4", "LIGHT", 4).
emissionMap("35", "None", "gasoline_euro4", "LIGHT", 25).
emissionMap("36", "40", "gasoline_euro4", "LIGHT", 0).
emissionMap("36", "None", "gasoline_euro4", "LIGHT", 0).
emissionMap("37", "36", "gasoline_euro4", "LIGHT", 5).
emissionMap("37", "None", "gasoline_euro4", "LIGHT", 6).
emissionMap("38", "15", "gasoline_euro4", "LIGHT", 2).
emissionMap("38", "33", "gasoline_euro4", "LIGHT", 2).
emissionMap("38", "50", "gasoline_euro4", "LIGHT", 2).
emissionMap("38", "None", "gasoline_euro4", "LIGHT", 2).
emissionMap("39", "35", "gasoline_euro4", "LIGHT", 0).
emissionMap("39", "None", "gasoline_euro4", "LIGHT", 0).
emissionMap("4", "4c", "gasoline_euro4", "LIGHT", 0).
emissionMap("4", "None", "gasoline_euro4", "LIGHT", 0).
emissionMap("40", "153", "gasoline_euro4", "LIGHT", 0).
emissionMap("40", "41", "gasoline_euro4", "LIGHT", 0).
emissionMap("40", "93", "gasoline_euro4", "LIGHT", 0).
emissionMap("40", "None", "gasoline_euro4", "LIGHT", 0).
emissionMap("41", "160", "gasoline_euro4", "LIGHT", 0).
emissionMap("41", "None", "gasoline_euro4", "LIGHT", 0).
emissionMap("42", "153", "gasoline_euro4", "LIGHT", 0).
emissionMap("42", "39", "gasoline_euro4", "LIGHT", 0).
emissionMap("42", "None", "gasoline_euro4", "LIGHT", 0).
emissionMap("43[0]", "118", "gasoline_euro4", "LIGHT", 0).
emissionMap("43[0]", "43[1]", "gasoline_euro4", "LIGHT", 0).
emissionMap("43[0]", "None", "gasoline_euro4", "LIGHT", 0).
emissionMap("43[1]", "134", "gasoline_euro4", "LIGHT", 2).
emissionMap("43[1]", "201", "gasoline_euro4", "LIGHT", 2).
emissionMap("43[1]", "None", "gasoline_euro4", "LIGHT", 1).
emissionMap("44", "36", "gasoline_euro4", "LIGHT", 1).
emissionMap("44", "38", "gasoline_euro4", "LIGHT", 0).
emissionMap("44", "None", "gasoline_euro4", "LIGHT", 2).
emissionMap("45", "206", "gasoline_euro4", "LIGHT", 0).
emissionMap("45", "44", "gasoline_euro4", "LIGHT", 0).
emissionMap("45", "None", "gasoline_euro4", "LIGHT", 0).
emissionMap("46", "113", "gasoline_euro4", "LIGHT", 1).
emissionMap("46", "134", "gasoline_euro4", "LIGHT", 0).
emissionMap("46", "201", "gasoline_euro4", "LIGHT", 0).
emissionMap("46", "None", "gasoline_euro4", "LIGHT", 0).
emissionMap("48", "160", "gasoline_euro4", "LIGHT", 4).
emissionMap("48", "42", "gasoline_euro4", "LIGHT", 6).
emissionMap("48", "None", "gasoline_euro4", "LIGHT", 5).
emissionMap("49", "None", "gasoline_euro4", "LIGHT", 0).
emissionMap("4c", "None", "gasoline_euro4", "LIGHT", 0).
emissionMap("50", "19", "gasoline_euro4", "LIGHT", 3).
emissionMap("50", "219", "gasoline_euro4", "LIGHT", 1).
emissionMap("50", "None", "gasoline_euro4", "LIGHT", 1).
emissionMap("51", "19", "gasoline_euro4", "LIGHT", 1).
emissionMap("51", "219", "gasoline_euro4", "LIGHT", 1).
emissionMap("51", "None", "gasoline_euro4", "LIGHT", 1).
emissionMap("53[0]", "78[1][1]", "gasoline_euro4", "LIGHT", 0).
emissionMap("53[0]", "(53[1][0]|53[1][1][0]|77[1][0])", "gasoline_euro4", "LIGHT", 0).
emissionMap("53[0]", "(53[1][0]|53[1][1][0]|77[1][0]|77ab)", "gasoline_euro4", "LIGHT", 0).
emissionMap("53[0]", "(53[1][0]|53[1][1][0]|77[1][0]|77ab|77bc)", "gasoline_euro4", "LIGHT", 0).
emissionMap("53[0]", "(53[1][0]|53[1][1][0]|77[1][0]|77ab|77bc|77cd|53cd)", "gasoline_euro4", "LIGHT", 0).
emissionMap("53[0]", "(53[1][0]|53[1][1][0]|77[1][0]|77ab|77bc|77cd)", "gasoline_euro4", "LIGHT", 0).
emissionMap("53[0]", "(53[1][0])", "gasoline_euro4", "LIGHT", 0).
emissionMap("53[0]", "(53[1][0]|53[1][1][0])", "gasoline_euro4", "LIGHT", 0).
emissionMap("53[0]", "None", "gasoline_euro4", "LIGHT", 0).
emissionMap("53[1][0]", "79", "gasoline_euro4", "LIGHT", 0).
emissionMap("53[1][0]", "(53[1][1][0]|77[1][0])", "gasoline_euro4", "LIGHT", 0).
emissionMap("53[1][0]", "(53[1][1][0]|77[1][0]|77ab)", "gasoline_euro4", "LIGHT", 0).
emissionMap("53[1][0]", "(53[1][1][0]|77[1][0]|77ab|77bc)", "gasoline_euro4", "LIGHT", 0).
emissionMap("53[1][0]", "(53[1][1][0]|77[1][0]|77ab|77bc|77cd|53cd)", "gasoline_euro4", "LIGHT", 0).
emissionMap("53[1][0]", "(53[1][1][0]|77[1][0]|77ab|77bc|77cd)", "gasoline_euro4", "LIGHT", 0).
emissionMap("53[1][0]", "(53[1][1][0]|77[1][0]|77ab|77bc|77cd|53cd|53[0])", "gasoline_euro4", "LIGHT", 0).
emissionMap("53[1][0]", "(53[1][1][0])", "gasoline_euro4", "LIGHT", 0).
emissionMap("53[1][0]", "None", "gasoline_euro4", "LIGHT", 0).
emissionMap("53[1][1][0]", "(77[1][0])", "gasoline_euro4", "LIGHT", 0).
emissionMap("53[1][1][0]", "(77[1][0]|77ab)", "gasoline_euro4", "LIGHT", 0).
emissionMap("53[1][1][0]", "(77[1][0]|77ab|77bc)", "gasoline_euro4", "LIGHT", 0).
emissionMap("53[1][1][0]", "(77[1][0]|77ab|77bc|77cd|53cd)", "gasoline_euro4", "LIGHT", 0).
emissionMap("53[1][1][0]", "(77[1][0]|77ab|77bc|77cd)", "gasoline_euro4", "LIGHT", 0).
emissionMap("53[1][1][0]", "(77[1][0]|77ab|77bc|77cd|53cd|53[0])", "gasoline_euro4", "LIGHT", 0).
emissionMap("53[1][1][0]", "(77[1][0]|77ab|77bc|77cd|53cd|53[0]|53[1][0])", "gasoline_euro4", "LIGHT", 0).
emissionMap("53[1][1][0]", "None", "gasoline_euro4", "LIGHT", 0).
emissionMap("53cd", "82", "gasoline_euro4", "LIGHT", 0).
emissionMap("53cd", "(53[0]|53[1][0]|53[1][1][0]|77[1][0])", "gasoline_euro4", "LIGHT", 0).
emissionMap("53cd", "(53[0]|53[1][0]|53[1][1][0]|77[1][0]|77ab)", "gasoline_euro4", "LIGHT", 0).
emissionMap("53cd", "(53[0]|53[1][0]|53[1][1][0]|77[1][0]|77ab|77bc)", "gasoline_euro4", "LIGHT", 0).
emissionMap("53cd", "(53[0]|53[1][0]|53[1][1][0]|77[1][0]|77ab|77bc|77cd)", "gasoline_euro4", "LIGHT", 0).
emissionMap("53cd", "(53[0])", "gasoline_euro4", "LIGHT", 0).
emissionMap("53cd", "(53[0]|53[1][0])", "gasoline_euro4", "LIGHT", 0).
emissionMap("53cd", "(53[0]|53[1][0]|53[1][1][0])", "gasoline_euro4", "LIGHT", 0).
emissionMap("53cd", "None", "gasoline_euro4", "LIGHT", 0).
emissionMap("54", "None", "gasoline_euro4", "LIGHT", 0).
emissionMap("56a", "56b", "gasoline_euro4", "LIGHT", 0).
emissionMap("56a", "m1", "gasoline_euro4", "LIGHT", 0).
emissionMap("56a", "None", "gasoline_euro4", "LIGHT", 0).
emissionMap("56b", "(77bc|77cd|53cd|53[0]|53[1][0]|53[1][1][0]|77[1][0])", "gasoline_euro4", "LIGHT", 1).
emissionMap("56b", "(77bc)", "gasoline_euro4", "LIGHT", 2).
emissionMap("56b", "(77bc|77cd|53cd)", "gasoline_euro4", "LIGHT", 2).
emissionMap("56b", "(77bc|77cd)", "gasoline_euro4", "LIGHT", 1).
emissionMap("56b", "(77bc|77cd|53cd|53[0])", "gasoline_euro4", "LIGHT", 1).
emissionMap("56b", "(77bc|77cd|53cd|53[0]|53[1][0])", "gasoline_euro4", "LIGHT", 3).
emissionMap("56b", "(77bc|77cd|53cd|53[0]|53[1][0]|53[1][1][0])", "gasoline_euro4", "LIGHT", 2).
emissionMap("56b", "None", "gasoline_euro4", "LIGHT", 2).
emissionMap("57[0]", "57[1]", "gasoline_euro4", "LIGHT", 0).
emissionMap("57[0]", "None", "gasoline_euro4", "LIGHT", 0).
emissionMap("57[1]", "62", "gasoline_euro4", "LIGHT", 1).
emissionMap("57[1]", "None", "gasoline_euro4", "LIGHT", 0).
emissionMap("58[0]", "58[1]", "gasoline_euro4", "LIGHT", 0).
emissionMap("58[0]", "None", "gasoline_euro4", "LIGHT", 0).
emissionMap("58[1]", "197", "gasoline_euro4", "LIGHT", 1).
emissionMap("58[1]", "66", "gasoline_euro4", "LIGHT", 2).
emissionMap("58[1]", "[200|60]", "gasoline_euro4", "LIGHT", 1).
emissionMap("58[1]", "None", "gasoline_euro4", "LIGHT", 1).
emissionMap("59", "(53cd|53[0]|53[1][0]|53[1][1][0]|77[1][0])", "gasoline_euro4", "LIGHT", 3).
emissionMap("59", "(53cd|53[0]|53[1][0]|53[1][1][0]|77[1][0]|77ab)", "gasoline_euro4", "LIGHT", 4).
emissionMap("59", "(53cd|53[0]|53[1][0]|53[1][1][0]|77[1][0]|77ab|77bc)", "gasoline_euro4", "LIGHT", 3).
emissionMap("59", "(53cd)", "gasoline_euro4", "LIGHT", 2).
emissionMap("59", "(53cd|53[0])", "gasoline_euro4", "LIGHT", 3).
emissionMap("59", "(53cd|53[0]|53[1][0])", "gasoline_euro4", "LIGHT", 2).
emissionMap("59", "(53cd|53[0]|53[1][0]|53[1][1][0])", "gasoline_euro4", "LIGHT", 2).
emissionMap("59", "None", "gasoline_euro4", "LIGHT", 5).
emissionMap("60", "None", "gasoline_euro4", "LIGHT", 0).
emissionMap("61", "58[0]", "gasoline_euro4", "LIGHT", 1).
emissionMap("61", "None", "gasoline_euro4", "LIGHT", 1).
emissionMap("62", "159", "gasoline_euro4", "LIGHT", 1).
emissionMap("62", "None", "gasoline_euro4", "LIGHT", 1).
emissionMap("65", "197", "gasoline_euro4", "LIGHT", 0).
emissionMap("65", "57[0]", "gasoline_euro4", "LIGHT", 0).
emissionMap("65", "[200|60]", "gasoline_euro4", "LIGHT", 1).
emissionMap("65", "None", "gasoline_euro4", "LIGHT", 0).
emissionMap("66", "117", "gasoline_euro4", "LIGHT", 3).
emissionMap("66", "119", "gasoline_euro4", "LIGHT", 3).
emissionMap("66", "None", "gasoline_euro4", "LIGHT", 4).
emissionMap("67", "[80|127]", "gasoline_euro4", "LIGHT", 0).
emissionMap("67", "[26|25]", "gasoline_euro4", "LIGHT", 0).
emissionMap("67", "None", "gasoline_euro4", "LIGHT", 0).
emissionMap("68", "11", "gasoline_euro4", "LIGHT", 0).
emissionMap("68", "None", "gasoline_euro4", "LIGHT", 0).
emissionMap("69", "161", "gasoline_euro4", "LIGHT", 0).
emissionMap("69", "None", "gasoline_euro4", "LIGHT", 0).
emissionMap("71", "67", "gasoline_euro4", "LIGHT", 2).
emissionMap("71", "84", "gasoline_euro4", "LIGHT", 0).
emissionMap("71", "86", "gasoline_euro4", "LIGHT", 0).
emissionMap("71", "None", "gasoline_euro4", "LIGHT", 0).
emissionMap("72[0]", "72[1]", "gasoline_euro4", "LIGHT", 7).
emissionMap("72[0]", "None", "gasoline_euro4", "LIGHT", 0).
emissionMap("72[1]", "69", "gasoline_euro4", "LIGHT", 1).
emissionMap("72[1]", "None", "gasoline_euro4", "LIGHT", 1).
emissionMap("74", "72[1]", "gasoline_euro4", "LIGHT", 6).
emissionMap("74", "None", "gasoline_euro4", "LIGHT", 6).
emissionMap("75", "51", "gasoline_euro4", "LIGHT", 1).
emissionMap("75", "None", "gasoline_euro4", "LIGHT", 1).
emissionMap("77[1][0]", "77[1][1]", "gasoline_euro4", "LIGHT", 0).
emissionMap("77[1][0]", "(77ab)", "gasoline_euro4", "LIGHT", 0).
emissionMap("77[1][0]", "(77ab|77bc)", "gasoline_euro4", "LIGHT", 0).
emissionMap("77[1][0]", "(77ab|77bc|77cd|53cd)", "gasoline_euro4", "LIGHT", 0).
emissionMap("77[1][0]", "(77ab|77bc|77cd)", "gasoline_euro4", "LIGHT", 0).
emissionMap("77[1][0]", "(77ab|77bc|77cd|53cd|53[0])", "gasoline_euro4", "LIGHT", 0).
emissionMap("77[1][0]", "(77ab|77bc|77cd|53cd|53[0]|53[1][0])", "gasoline_euro4", "LIGHT", 0).
emissionMap("77[1][0]", "(77ab|77bc|77cd|53cd|53[0]|53[1][0]|53[1][1][0])", "gasoline_euro4", "LIGHT", 0).
emissionMap("77[1][0]", "None", "gasoline_euro4", "LIGHT", 0).
emissionMap("77[1][1]", "None", "gasoline_euro4", "LIGHT", 0).
emissionMap("77ab", "(77bc|77cd|53cd|53[0]|53[1][0]|53[1][1][0]|77[1][0])", "gasoline_euro4", "LIGHT", 0).
emissionMap("77ab", "(77bc)", "gasoline_euro4", "LIGHT", 0).
emissionMap("77ab", "(77bc|77cd|53cd)", "gasoline_euro4", "LIGHT", 0).
emissionMap("77ab", "(77bc|77cd)", "gasoline_euro4", "LIGHT", 0).
emissionMap("77ab", "(77bc|77cd|53cd|53[0])", "gasoline_euro4", "LIGHT", 0).
emissionMap("77ab", "(77bc|77cd|53cd|53[0]|53[1][0])", "gasoline_euro4", "LIGHT", 0).
emissionMap("77ab", "(77bc|77cd|53cd|53[0]|53[1][0]|53[1][1][0])", "gasoline_euro4", "LIGHT", 0).
emissionMap("77ab", "None", "gasoline_euro4", "LIGHT", 0).
emissionMap("77bc", "21a", "gasoline_euro4", "LIGHT", 0).
emissionMap("77bc", "(77cd|53cd|53[0]|53[1][0]|53[1][1][0]|77[1][0])", "gasoline_euro4", "LIGHT", 0).
emissionMap("77bc", "(77cd|53cd|53[0]|53[1][0]|53[1][1][0]|77[1][0]|77ab)", "gasoline_euro4", "LIGHT", 0).
emissionMap("77bc", "(77cd|53cd)", "gasoline_euro4", "LIGHT", 0).
emissionMap("77bc", "(77cd)", "gasoline_euro4", "LIGHT", 0).
emissionMap("77bc", "(77cd|53cd|53[0])", "gasoline_euro4", "LIGHT", 0).
emissionMap("77bc", "(77cd|53cd|53[0]|53[1][0])", "gasoline_euro4", "LIGHT", 0).
emissionMap("77bc", "(77cd|53cd|53[0]|53[1][0]|53[1][1][0])", "gasoline_euro4", "LIGHT", 0).
emissionMap("77bc", "None", "gasoline_euro4", "LIGHT", 0).
emissionMap("77cd", "(53cd|53[0]|53[1][0]|53[1][1][0]|77[1][0])", "gasoline_euro4", "LIGHT", 0).
emissionMap("77cd", "(53cd|53[0]|53[1][0]|53[1][1][0]|77[1][0]|77ab)", "gasoline_euro4", "LIGHT", 0).
emissionMap("77cd", "(53cd|53[0]|53[1][0]|53[1][1][0]|77[1][0]|77ab|77bc)", "gasoline_euro4", "LIGHT", 0).
emissionMap("77cd", "(53cd)", "gasoline_euro4", "LIGHT", 0).
emissionMap("77cd", "(53cd|53[0])", "gasoline_euro4", "LIGHT", 0).
emissionMap("77cd", "(53cd|53[0]|53[1][0])", "gasoline_euro4", "LIGHT", 0).
emissionMap("77cd", "(53cd|53[0]|53[1][0]|53[1][1][0])", "gasoline_euro4", "LIGHT", 0).
emissionMap("77cd", "None", "gasoline_euro4", "LIGHT", 0).
emissionMap("78[0]", "56a", "gasoline_euro4", "LIGHT", 3).
emissionMap("78[0]", "None", "gasoline_euro4", "LIGHT", 3).
emissionMap("78[1][1]", "75", "gasoline_euro4", "LIGHT", 0).
emissionMap("78[1][1]", "[189[0]|189[1][0]+20000|189[1][1]]", "gasoline_euro4", "LIGHT", 0).
emissionMap("78[1][1]", "None", "gasoline_euro4", "LIGHT", 0).
emissionMap("79", "74", "gasoline_euro4", "LIGHT", 3).
emissionMap("79", "[68|11]", "gasoline_euro4", "LIGHT", 3).
emissionMap("79", "[26|25]", "gasoline_euro4", "LIGHT", 3).
emissionMap("79", "None", "gasoline_euro4", "LIGHT", 1).
emissionMap("8", "9", "gasoline_euro4", "LIGHT", 0).
emissionMap("8", "[13|104]", "gasoline_euro4", "LIGHT", 0).
emissionMap("8", "None", "gasoline_euro4", "LIGHT", 0).
emissionMap("80", "127", "gasoline_euro4", "LIGHT", 0).
emissionMap("80", "None", "gasoline_euro4", "LIGHT", 0).
emissionMap("82", "51", "gasoline_euro4", "LIGHT", 0).
emissionMap("82", "None", "gasoline_euro4", "LIGHT", 0).
emissionMap("83", "12", "gasoline_euro4", "LIGHT", 0).
emissionMap("83", "None", "gasoline_euro4", "LIGHT", 0).
emissionMap("84", "180", "gasoline_euro4", "LIGHT", 3).
emissionMap("84", "[138|137]", "gasoline_euro4", "LIGHT", 3).
emissionMap("84", "None", "gasoline_euro4", "LIGHT", 3).
emissionMap("85", "67", "gasoline_euro4", "LIGHT", 5).
emissionMap("85", "72[0]", "gasoline_euro4", "LIGHT", 3).
emissionMap("85", "84", "gasoline_euro4", "LIGHT", 9).
emissionMap("85", "None", "gasoline_euro4", "LIGHT", 3).
emissionMap("86", "None", "gasoline_euro4", "LIGHT", 0).
emissionMap("87[0]", "20001+87[1][0]", "gasoline_euro4", "LIGHT", 0).
emissionMap("87[0]", "None", "gasoline_euro4", "LIGHT", 0).
emissionMap("87[1][1]", "97", "gasoline_euro4", "LIGHT", 0).
emissionMap("87[1][1]", "m90", "gasoline_euro4", "LIGHT", 0).
emissionMap("87[1][1]", "None", "gasoline_euro4", "LIGHT", 0).
emissionMap("89[0]", "20002+89[1][0]", "gasoline_euro4", "LIGHT", 0).
emissionMap("89[0]", "None", "gasoline_euro4", "LIGHT", 0).
emissionMap("89[1][1]", "91", "gasoline_euro4", "LIGHT", 0).
emissionMap("89[1][1]", "None", "gasoline_euro4", "LIGHT", 0).
emissionMap("9", "[211|45]", "gasoline_euro4", "LIGHT", 0).
emissionMap("9", "None", "gasoline_euro4", "LIGHT", 0).
emissionMap("91", "173", "gasoline_euro4", "LIGHT", 0).
emissionMap("91", "186", "gasoline_euro4", "LIGHT", 0).
emissionMap("91", "None", "gasoline_euro4", "LIGHT", 0).
emissionMap("93", "28", "gasoline_euro4", "LIGHT", 0).
emissionMap("93", "48", "gasoline_euro4", "LIGHT", 0).
emissionMap("93", "None", "gasoline_euro4", "LIGHT", 0).
emissionMap("97", "160", "gasoline_euro4", "LIGHT", 9).
emissionMap("97", "42", "gasoline_euro4", "LIGHT", 10).
emissionMap("97", "None", "gasoline_euro4", "LIGHT", 11).
emissionMap("m1", "21b", "gasoline_euro4", "LIGHT", 0).
emissionMap("m1", "None", "gasoline_euro4", "LIGHT", 0).
emissionMap("m2", "54", "gasoline_euro4", "LIGHT", 0).
emissionMap("m2", "None", "gasoline_euro4", "LIGHT", 0).
emissionMap("m90", "171", "gasoline_euro4", "LIGHT", 0).
emissionMap("m90", "[89[0]|20002+89[1][0]|89[1][1]]", "gasoline_euro4", "LIGHT", 0).
emissionMap("m90", "None", "gasoline_euro4", "LIGHT", 0).
emissionMap("[13|104]", "16", "gasoline_euro4", "LIGHT", 0).
emissionMap("[13|104]", "24", "gasoline_euro4", "LIGHT", 0).
emissionMap("[13|104]", "49", "gasoline_euro4", "LIGHT", 0).
emissionMap("[13|104]", "None", "gasoline_euro4", "LIGHT", 0).
emissionMap("[109[0]|109[1][0]+20003|109[1][1]]", "120", "gasoline_euro4", "LIGHT", 0).
emissionMap("[109[0]|109[1][0]+20003|109[1][1]]", "[116|46]", "gasoline_euro4", "LIGHT", 0).
emissionMap("[109[0]|109[1][0]+20003|109[1][1]]", "None", "gasoline_euro4", "LIGHT", 0).
emissionMap("[68|11]", "72[0]", "gasoline_euro4", "LIGHT", 0).
emissionMap("[68|11]", "84", "gasoline_euro4", "LIGHT", 0).
emissionMap("[68|11]", "86", "gasoline_euro4", "LIGHT", 0).
emissionMap("[68|11]", "None", "gasoline_euro4", "LIGHT", 0).
emissionMap("[116|46]", "113", "gasoline_euro4", "LIGHT", 2).
emissionMap("[116|46]", "134", "gasoline_euro4", "LIGHT", 3).
emissionMap("[116|46]", "201", "gasoline_euro4", "LIGHT", 3).
emissionMap("[116|46]", "None", "gasoline_euro4", "LIGHT", 7).
emissionMap("[83|12]", "67", "gasoline_euro4", "LIGHT", 2).
emissionMap("[83|12]", "86", "gasoline_euro4", "LIGHT", 1).
emissionMap("[83|12]", "None", "gasoline_euro4", "LIGHT", 3).
emissionMap("[80|127]", "(77[1][0])", "gasoline_euro4", "LIGHT", 0).
emissionMap("[80|127]", "(77[1][0]|77ab)", "gasoline_euro4", "LIGHT", 0).
emissionMap("[80|127]", "(77[1][0]|77ab|77bc)", "gasoline_euro4", "LIGHT", 1).
emissionMap("[80|127]", "(77[1][0]|77ab|77bc|77cd|53cd)", "gasoline_euro4", "LIGHT", 1).
emissionMap("[80|127]", "(77[1][0]|77ab|77bc|77cd)", "gasoline_euro4", "LIGHT", 1).
emissionMap("[80|127]", "(77[1][0]|77ab|77bc|77cd|53cd|53[0])", "gasoline_euro4", "LIGHT", 0).
emissionMap("[80|127]", "(77[1][0]|77ab|77bc|77cd|53cd|53[0]|53[1][0])", "gasoline_euro4", "LIGHT", 0).
emissionMap("[80|127]", "None", "gasoline_euro4", "LIGHT", 0).
emissionMap("[134b|133]", "31", "gasoline_euro4", "LIGHT", 4).
emissionMap("[134b|133]", "None", "gasoline_euro4", "LIGHT", 4).
emissionMap("[136|135]", "[181|18]", "gasoline_euro4", "LIGHT", 24).
emissionMap("[136|135]", "None", "gasoline_euro4", "LIGHT", 28).
emissionMap("[138|137]", "180", "gasoline_euro4", "LIGHT", 5).
emissionMap("[138|137]", "None", "gasoline_euro4", "LIGHT", 6).
emissionMap("[17|71]", "67", "gasoline_euro4", "LIGHT", 3).
emissionMap("[17|71]", "84", "gasoline_euro4", "LIGHT", 1).
emissionMap("[17|71]", "86", "gasoline_euro4", "LIGHT", 2).
emissionMap("[17|71]", "None", "gasoline_euro4", "LIGHT", 2).
emissionMap("[181|18]", "69", "gasoline_euro4", "LIGHT", 1).
emissionMap("[181|18]", "[17|71]", "gasoline_euro4", "LIGHT", 1).
emissionMap("[181|18]", "None", "gasoline_euro4", "LIGHT", 0).
emissionMap("[189[0]|189[1][0]+20000|189[1][1]]", "188", "gasoline_euro4", "LIGHT", 3).
emissionMap("[189[0]|189[1][0]+20000|189[1][1]]", "191", "gasoline_euro4", "LIGHT", 3).
emissionMap("[189[0]|189[1][0]+20000|189[1][1]]", "None", "gasoline_euro4", "LIGHT", 3).
emissionMap("[3|2]", "4", "gasoline_euro4", "LIGHT", 1).
emissionMap("[3|2]", "[202|34]", "gasoline_euro4", "LIGHT", 0).
emissionMap("[3|2]", "None", "gasoline_euro4", "LIGHT", 0).
emissionMap("[200|60]", "None", "gasoline_euro4", "LIGHT", 0).
emissionMap("[87[0]|20001+87[1][0]|87[1][1]]", "97", "gasoline_euro4", "LIGHT", 0).
emissionMap("[87[0]|20001+87[1][0]|87[1][1]]", "m90", "gasoline_euro4", "LIGHT", 0).
emissionMap("[87[0]|20001+87[1][0]|87[1][1]]", "None", "gasoline_euro4", "LIGHT", 0).
emissionMap("[89[0]|20002+89[1][0]|89[1][1]]", "91", "gasoline_euro4", "LIGHT", 0).
emissionMap("[89[0]|20002+89[1][0]|89[1][1]]", "None", "gasoline_euro4", "LIGHT", 0).
emissionMap("[202|34]", "113", "gasoline_euro4", "LIGHT", 1).
emissionMap("[202|34]", "134", "gasoline_euro4", "LIGHT", 5).
emissionMap("[202|34]", "None", "gasoline_euro4", "LIGHT", 1).
emissionMap("[210|43[0]]", "118", "gasoline_euro4", "LIGHT", 7).
emissionMap("[210|43[0]]", "43[1]", "gasoline_euro4", "LIGHT", 3).
emissionMap("[210|43[0]]", "None", "gasoline_euro4", "LIGHT", 2).
emissionMap("[211|45]", "206", "gasoline_euro4", "LIGHT", 0).
emissionMap("[211|45]", "44", "gasoline_euro4", "LIGHT", 0).
emissionMap("[211|45]", "None", "gasoline_euro4", "LIGHT", 0).
emissionMap("[22|59]", "(53cd|53[0]|53[1][0]|53[1][1][0]|77[1][0])", "gasoline_euro4", "LIGHT", 4).
emissionMap("[22|59]", "(53cd|53[0]|53[1][0]|53[1][1][0]|77[1][0]|77ab)", "gasoline_euro4", "LIGHT", 1).
emissionMap("[22|59]", "(53cd|53[0]|53[1][0]|53[1][1][0]|77[1][0]|77ab|77bc)", "gasoline_euro4", "LIGHT", 8).
emissionMap("[22|59]", "(53cd)", "gasoline_euro4", "LIGHT", 1).
emissionMap("[22|59]", "(53cd|53[0])", "gasoline_euro4", "LIGHT", 1).
emissionMap("[22|59]", "(53cd|53[0]|53[1][0])", "gasoline_euro4", "LIGHT", 1).
emissionMap("[22|59]", "(53cd|53[0]|53[1][0]|53[1][1][0])", "gasoline_euro4", "LIGHT", 5).
emissionMap("[22|59]", "None", "gasoline_euro4", "LIGHT", 1).
emissionMap("[26|25]", "74", "gasoline_euro4", "LIGHT", 18).
emissionMap("[26|25]", "[68|11]", "gasoline_euro4", "LIGHT", 19).
emissionMap("[26|25]", "[80|127]", "gasoline_euro4", "LIGHT", 18).
emissionMap("[26|25]", "None", "gasoline_euro4", "LIGHT", 17).
emissionMap("[78[0]|56a]", "56b", "gasoline_euro4", "LIGHT", 3).
emissionMap("[78[0]|56a]", "m1", "gasoline_euro4", "LIGHT", 4).
emissionMap("[78[0]|56a]", "None", "gasoline_euro4", "LIGHT", 4).
emissionMap("(77ab)", "(77bc|77cd|53cd|53[0]|53[1][0]|53[1][1][0]|77[1][0])", "gasoline_euro4", "LIGHT", 0).
emissionMap("(77ab)", "(77bc)", "gasoline_euro4", "LIGHT", 0).
emissionMap("(77ab)", "(77bc|77cd|53cd)", "gasoline_euro4", "LIGHT", 0).
emissionMap("(77ab)", "(77bc|77cd)", "gasoline_euro4", "LIGHT", 0).
emissionMap("(77ab)", "(77bc|77cd|53cd|53[0])", "gasoline_euro4", "LIGHT", 0).
emissionMap("(77ab)", "(77bc|77cd|53cd|53[0]|53[1][0])", "gasoline_euro4", "LIGHT", 0).
emissionMap("(77ab)", "(77bc|77cd|53cd|53[0]|53[1][0]|53[1][1][0])", "gasoline_euro4", "LIGHT", 0).
emissionMap("(77ab)", "None", "gasoline_euro4", "LIGHT", 0).
emissionMap("(77ab|77bc)", "21a", "gasoline_euro4", "LIGHT", 0).
emissionMap("(77ab|77bc)", "(77cd|53cd|53[0]|53[1][0]|53[1][1][0]|77[1][0])", "gasoline_euro4", "LIGHT", 0).
emissionMap("(77ab|77bc)", "(77cd|53cd)", "gasoline_euro4", "LIGHT", 0).
emissionMap("(77ab|77bc)", "(77cd)", "gasoline_euro4", "LIGHT", 0).
emissionMap("(77ab|77bc)", "(77cd|53cd|53[0])", "gasoline_euro4", "LIGHT", 0).
emissionMap("(77ab|77bc)", "(77cd|53cd|53[0]|53[1][0])", "gasoline_euro4", "LIGHT", 0).
emissionMap("(77ab|77bc)", "(77cd|53cd|53[0]|53[1][0]|53[1][1][0])", "gasoline_euro4", "LIGHT", 0).
emissionMap("(77ab|77bc)", "None", "gasoline_euro4", "LIGHT", 0).
emissionMap("(77ab|77bc|77cd|53cd)", "82", "gasoline_euro4", "LIGHT", 0).
emissionMap("(77ab|77bc|77cd|53cd)", "(53[0]|53[1][0]|53[1][1][0]|77[1][0])", "gasoline_euro4", "LIGHT", 0).
emissionMap("(77ab|77bc|77cd|53cd)", "(53[0])", "gasoline_euro4", "LIGHT", 0).
emissionMap("(77ab|77bc|77cd|53cd)", "(53[0]|53[1][0])", "gasoline_euro4", "LIGHT", 0).
emissionMap("(77ab|77bc|77cd|53cd)", "(53[0]|53[1][0]|53[1][1][0])", "gasoline_euro4", "LIGHT", 0).
emissionMap("(77ab|77bc|77cd|53cd)", "None", "gasoline_euro4", "LIGHT", 0).
emissionMap("(77ab|77bc|77cd)", "(53cd|53[0]|53[1][0]|53[1][1][0]|77[1][0])", "gasoline_euro4", "LIGHT", 0).
emissionMap("(77ab|77bc|77cd)", "(53cd)", "gasoline_euro4", "LIGHT", 0).
emissionMap("(77ab|77bc|77cd)", "(53cd|53[0])", "gasoline_euro4", "LIGHT", 0).
emissionMap("(77ab|77bc|77cd)", "(53cd|53[0]|53[1][0])", "gasoline_euro4", "LIGHT", 0).
emissionMap("(77ab|77bc|77cd)", "(53cd|53[0]|53[1][0]|53[1][1][0])", "gasoline_euro4", "LIGHT", 0).
emissionMap("(77ab|77bc|77cd)", "None", "gasoline_euro4", "LIGHT", 0).
emissionMap("(77ab|77bc|77cd|53cd|53[0])", "78[1][1]", "gasoline_euro4", "LIGHT", 0).
emissionMap("(77ab|77bc|77cd|53cd|53[0])", "(53[1][0]|53[1][1][0]|77[1][0])", "gasoline_euro4", "LIGHT", 0).
emissionMap("(77ab|77bc|77cd|53cd|53[0])", "(53[1][0])", "gasoline_euro4", "LIGHT", 0).
emissionMap("(77ab|77bc|77cd|53cd|53[0])", "(53[1][0]|53[1][1][0])", "gasoline_euro4", "LIGHT", 0).
emissionMap("(77ab|77bc|77cd|53cd|53[0])", "None", "gasoline_euro4", "LIGHT", 0).
emissionMap("(77ab|77bc|77cd|53cd|53[0]|53[1][0])", "79", "gasoline_euro4", "LIGHT", 0).
emissionMap("(77ab|77bc|77cd|53cd|53[0]|53[1][0])", "(53[1][1][0]|77[1][0])", "gasoline_euro4", "LIGHT", 0).
emissionMap("(77ab|77bc|77cd|53cd|53[0]|53[1][0])", "(53[1][1][0])", "gasoline_euro4", "LIGHT", 0).
emissionMap("(77ab|77bc|77cd|53cd|53[0]|53[1][0])", "None", "gasoline_euro4", "LIGHT", 0).
emissionMap("(77ab|77bc|77cd|53cd|53[0]|53[1][0]|53[1][1][0])", "(77[1][0])", "gasoline_euro4", "LIGHT", 0).
emissionMap("(77ab|77bc|77cd|53cd|53[0]|53[1][0]|53[1][1][0])", "None", "gasoline_euro4", "LIGHT", 0).
emissionMap("(77bc|77cd|53cd|53[0]|53[1][0]|53[1][1][0]|77[1][0])", "77[1][1]", "gasoline_euro4", "LIGHT", 0).
emissionMap("(77bc|77cd|53cd|53[0]|53[1][0]|53[1][1][0]|77[1][0])", "(77ab)", "gasoline_euro4", "LIGHT", 0).
emissionMap("(77bc|77cd|53cd|53[0]|53[1][0]|53[1][1][0]|77[1][0])", "None", "gasoline_euro4", "LIGHT", 0).
emissionMap("(77bc)", "21a", "gasoline_euro4", "LIGHT", 0).
emissionMap("(77bc)", "(77cd|53cd|53[0]|53[1][0]|53[1][1][0]|77[1][0])", "gasoline_euro4", "LIGHT", 0).
emissionMap("(77bc)", "(77cd|53cd|53[0]|53[1][0]|53[1][1][0]|77[1][0]|77ab)", "gasoline_euro4", "LIGHT", 0).
emissionMap("(77bc)", "(77cd|53cd)", "gasoline_euro4", "LIGHT", 0).
emissionMap("(77bc)", "(77cd)", "gasoline_euro4", "LIGHT", 0).
emissionMap("(77bc)", "(77cd|53cd|53[0])", "gasoline_euro4", "LIGHT", 0).
emissionMap("(77bc)", "(77cd|53cd|53[0]|53[1][0])", "gasoline_euro4", "LIGHT", 0).
emissionMap("(77bc)", "(77cd|53cd|53[0]|53[1][0]|53[1][1][0])", "gasoline_euro4", "LIGHT", 0).
emissionMap("(77bc)", "None", "gasoline_euro4", "LIGHT", 0).
emissionMap("(77bc|77cd|53cd)", "82", "gasoline_euro4", "LIGHT", 0).
emissionMap("(77bc|77cd|53cd)", "(53[0]|53[1][0]|53[1][1][0]|77[1][0])", "gasoline_euro4", "LIGHT", 0).
emissionMap("(77bc|77cd|53cd)", "(53[0]|53[1][0]|53[1][1][0]|77[1][0]|77ab)", "gasoline_euro4", "LIGHT", 0).
emissionMap("(77bc|77cd|53cd)", "(53[0])", "gasoline_euro4", "LIGHT", 0).
emissionMap("(77bc|77cd|53cd)", "(53[0]|53[1][0])", "gasoline_euro4", "LIGHT", 0).
emissionMap("(77bc|77cd|53cd)", "(53[0]|53[1][0]|53[1][1][0])", "gasoline_euro4", "LIGHT", 0).
emissionMap("(77bc|77cd|53cd)", "None", "gasoline_euro4", "LIGHT", 0).
emissionMap("(77bc|77cd)", "(53cd|53[0]|53[1][0]|53[1][1][0]|77[1][0])", "gasoline_euro4", "LIGHT", 0).
emissionMap("(77bc|77cd)", "(53cd|53[0]|53[1][0]|53[1][1][0]|77[1][0]|77ab)", "gasoline_euro4", "LIGHT", 0).
emissionMap("(77bc|77cd)", "(53cd)", "gasoline_euro4", "LIGHT", 0).
emissionMap("(77bc|77cd)", "(53cd|53[0])", "gasoline_euro4", "LIGHT", 0).
emissionMap("(77bc|77cd)", "(53cd|53[0]|53[1][0])", "gasoline_euro4", "LIGHT", 0).
emissionMap("(77bc|77cd)", "(53cd|53[0]|53[1][0]|53[1][1][0])", "gasoline_euro4", "LIGHT", 0).
emissionMap("(77bc|77cd)", "None", "gasoline_euro4", "LIGHT", 0).
emissionMap("(77bc|77cd|53cd|53[0])", "78[1][1]", "gasoline_euro4", "LIGHT", 0).
emissionMap("(77bc|77cd|53cd|53[0])", "(53[1][0]|53[1][1][0]|77[1][0])", "gasoline_euro4", "LIGHT", 0).
emissionMap("(77bc|77cd|53cd|53[0])", "(53[1][0]|53[1][1][0]|77[1][0]|77ab)", "gasoline_euro4", "LIGHT", 0).
emissionMap("(77bc|77cd|53cd|53[0])", "(53[1][0])", "gasoline_euro4", "LIGHT", 0).
emissionMap("(77bc|77cd|53cd|53[0])", "(53[1][0]|53[1][1][0])", "gasoline_euro4", "LIGHT", 0).
emissionMap("(77bc|77cd|53cd|53[0])", "None", "gasoline_euro4", "LIGHT", 0).
emissionMap("(77bc|77cd|53cd|53[0]|53[1][0])", "79", "gasoline_euro4", "LIGHT", 0).
emissionMap("(77bc|77cd|53cd|53[0]|53[1][0])", "(53[1][1][0]|77[1][0])", "gasoline_euro4", "LIGHT", 0).
emissionMap("(77bc|77cd|53cd|53[0]|53[1][0])", "(53[1][1][0]|77[1][0]|77ab)", "gasoline_euro4", "LIGHT", 0).
emissionMap("(77bc|77cd|53cd|53[0]|53[1][0])", "(53[1][1][0])", "gasoline_euro4", "LIGHT", 0).
emissionMap("(77bc|77cd|53cd|53[0]|53[1][0])", "None", "gasoline_euro4", "LIGHT", 0).
emissionMap("(77bc|77cd|53cd|53[0]|53[1][0]|53[1][1][0])", "(77[1][0])", "gasoline_euro4", "LIGHT", 0).
emissionMap("(77bc|77cd|53cd|53[0]|53[1][0]|53[1][1][0])", "(77[1][0]|77ab)", "gasoline_euro4", "LIGHT", 0).
emissionMap("(77bc|77cd|53cd|53[0]|53[1][0]|53[1][1][0])", "None", "gasoline_euro4", "LIGHT", 0).
emissionMap("(77cd|53cd|53[0]|53[1][0]|53[1][1][0]|77[1][0])", "77[1][1]", "gasoline_euro4", "LIGHT", 0).
emissionMap("(77cd|53cd|53[0]|53[1][0]|53[1][1][0]|77[1][0])", "(77ab)", "gasoline_euro4", "LIGHT", 0).
emissionMap("(77cd|53cd|53[0]|53[1][0]|53[1][1][0]|77[1][0])", "(77ab|77bc)", "gasoline_euro4", "LIGHT", 0).
emissionMap("(77cd|53cd|53[0]|53[1][0]|53[1][1][0]|77[1][0])", "None", "gasoline_euro4", "LIGHT", 0).
emissionMap("(77cd|53cd|53[0]|53[1][0]|53[1][1][0]|77[1][0]|77ab)", "(77bc)", "gasoline_euro4", "LIGHT", 0).
emissionMap("(77cd|53cd|53[0]|53[1][0]|53[1][1][0]|77[1][0]|77ab)", "None", "gasoline_euro4", "LIGHT", 0).
emissionMap("(77cd|53cd)", "82", "gasoline_euro4", "LIGHT", 0).
emissionMap("(77cd|53cd)", "(53[0]|53[1][0]|53[1][1][0]|77[1][0])", "gasoline_euro4", "LIGHT", 0).
emissionMap("(77cd|53cd)", "(53[0]|53[1][0]|53[1][1][0]|77[1][0]|77ab)", "gasoline_euro4", "LIGHT", 0).
emissionMap("(77cd|53cd)", "(53[0]|53[1][0]|53[1][1][0]|77[1][0]|77ab|77bc)", "gasoline_euro4", "LIGHT", 0).
emissionMap("(77cd|53cd)", "(53[0])", "gasoline_euro4", "LIGHT", 0).
emissionMap("(77cd|53cd)", "(53[0]|53[1][0])", "gasoline_euro4", "LIGHT", 0).
emissionMap("(77cd|53cd)", "(53[0]|53[1][0]|53[1][1][0])", "gasoline_euro4", "LIGHT", 0).
emissionMap("(77cd|53cd)", "None", "gasoline_euro4", "LIGHT", 0).
emissionMap("(77cd)", "(53cd|53[0]|53[1][0]|53[1][1][0]|77[1][0])", "gasoline_euro4", "LIGHT", 0).
emissionMap("(77cd)", "(53cd|53[0]|53[1][0]|53[1][1][0]|77[1][0]|77ab)", "gasoline_euro4", "LIGHT", 0).
emissionMap("(77cd)", "(53cd|53[0]|53[1][0]|53[1][1][0]|77[1][0]|77ab|77bc)", "gasoline_euro4", "LIGHT", 0).
emissionMap("(77cd)", "(53cd)", "gasoline_euro4", "LIGHT", 0).
emissionMap("(77cd)", "(53cd|53[0])", "gasoline_euro4", "LIGHT", 0).
emissionMap("(77cd)", "(53cd|53[0]|53[1][0])", "gasoline_euro4", "LIGHT", 0).
emissionMap("(77cd)", "(53cd|53[0]|53[1][0]|53[1][1][0])", "gasoline_euro4", "LIGHT", 0).
emissionMap("(77cd)", "None", "gasoline_euro4", "LIGHT", 0).
emissionMap("(77cd|53cd|53[0])", "78[1][1]", "gasoline_euro4", "LIGHT", 0).
emissionMap("(77cd|53cd|53[0])", "(53[1][0]|53[1][1][0]|77[1][0])", "gasoline_euro4", "LIGHT", 0).
emissionMap("(77cd|53cd|53[0])", "(53[1][0]|53[1][1][0]|77[1][0]|77ab)", "gasoline_euro4", "LIGHT", 0).
emissionMap("(77cd|53cd|53[0])", "(53[1][0]|53[1][1][0]|77[1][0]|77ab|77bc)", "gasoline_euro4", "LIGHT", 0).
emissionMap("(77cd|53cd|53[0])", "(53[1][0])", "gasoline_euro4", "LIGHT", 0).
emissionMap("(77cd|53cd|53[0])", "(53[1][0]|53[1][1][0])", "gasoline_euro4", "LIGHT", 0).
emissionMap("(77cd|53cd|53[0])", "None", "gasoline_euro4", "LIGHT", 0).
emissionMap("(77cd|53cd|53[0]|53[1][0])", "79", "gasoline_euro4", "LIGHT", 0).
emissionMap("(77cd|53cd|53[0]|53[1][0])", "(53[1][1][0]|77[1][0])", "gasoline_euro4", "LIGHT", 0).
emissionMap("(77cd|53cd|53[0]|53[1][0])", "(53[1][1][0]|77[1][0]|77ab)", "gasoline_euro4", "LIGHT", 0).
emissionMap("(77cd|53cd|53[0]|53[1][0])", "(53[1][1][0]|77[1][0]|77ab|77bc)", "gasoline_euro4", "LIGHT", 0).
emissionMap("(77cd|53cd|53[0]|53[1][0])", "(53[1][1][0])", "gasoline_euro4", "LIGHT", 0).
emissionMap("(77cd|53cd|53[0]|53[1][0])", "None", "gasoline_euro4", "LIGHT", 0).
emissionMap("(77cd|53cd|53[0]|53[1][0]|53[1][1][0])", "(77[1][0])", "gasoline_euro4", "LIGHT", 0).
emissionMap("(77cd|53cd|53[0]|53[1][0]|53[1][1][0])", "(77[1][0]|77ab)", "gasoline_euro4", "LIGHT", 0).
emissionMap("(77cd|53cd|53[0]|53[1][0]|53[1][1][0])", "(77[1][0]|77ab|77bc)", "gasoline_euro4", "LIGHT", 0).
emissionMap("(77cd|53cd|53[0]|53[1][0]|53[1][1][0])", "None", "gasoline_euro4", "LIGHT", 0).
emissionMap("(53[0]|53[1][0]|53[1][1][0]|77[1][0])", "77[1][1]", "gasoline_euro4", "LIGHT", 0).
emissionMap("(53[0]|53[1][0]|53[1][1][0]|77[1][0])", "(77ab)", "gasoline_euro4", "LIGHT", 0).
emissionMap("(53[0]|53[1][0]|53[1][1][0]|77[1][0])", "(77ab|77bc)", "gasoline_euro4", "LIGHT", 0).
emissionMap("(53[0]|53[1][0]|53[1][1][0]|77[1][0])", "(77ab|77bc|77cd|53cd)", "gasoline_euro4", "LIGHT", 0).
emissionMap("(53[0]|53[1][0]|53[1][1][0]|77[1][0])", "(77ab|77bc|77cd)", "gasoline_euro4", "LIGHT", 0).
emissionMap("(53[0]|53[1][0]|53[1][1][0]|77[1][0])", "None", "gasoline_euro4", "LIGHT", 0).
emissionMap("(53[0]|53[1][0]|53[1][1][0]|77[1][0]|77ab)", "(77bc)", "gasoline_euro4", "LIGHT", 0).
emissionMap("(53[0]|53[1][0]|53[1][1][0]|77[1][0]|77ab)", "(77bc|77cd|53cd)", "gasoline_euro4", "LIGHT", 0).
emissionMap("(53[0]|53[1][0]|53[1][1][0]|77[1][0]|77ab)", "(77bc|77cd)", "gasoline_euro4", "LIGHT", 0).
emissionMap("(53[0]|53[1][0]|53[1][1][0]|77[1][0]|77ab)", "None", "gasoline_euro4", "LIGHT", 0).
emissionMap("(53[0]|53[1][0]|53[1][1][0]|77[1][0]|77ab|77bc)", "21a", "gasoline_euro4", "LIGHT", 0).
emissionMap("(53[0]|53[1][0]|53[1][1][0]|77[1][0]|77ab|77bc)", "(77cd|53cd)", "gasoline_euro4", "LIGHT", 0).
emissionMap("(53[0]|53[1][0]|53[1][1][0]|77[1][0]|77ab|77bc)", "(77cd)", "gasoline_euro4", "LIGHT", 0).
emissionMap("(53[0]|53[1][0]|53[1][1][0]|77[1][0]|77ab|77bc)", "None", "gasoline_euro4", "LIGHT", 0).
emissionMap("(53[0]|53[1][0]|53[1][1][0]|77[1][0]|77ab|77bc|77cd)", "(53cd)", "gasoline_euro4", "LIGHT", 0).
emissionMap("(53[0]|53[1][0]|53[1][1][0]|77[1][0]|77ab|77bc|77cd)", "None", "gasoline_euro4", "LIGHT", 0).
emissionMap("(53[0])", "78[1][1]", "gasoline_euro4", "LIGHT", 0).
emissionMap("(53[0])", "(53[1][0]|53[1][1][0]|77[1][0])", "gasoline_euro4", "LIGHT", 0).
emissionMap("(53[0])", "(53[1][0]|53[1][1][0]|77[1][0]|77ab)", "gasoline_euro4", "LIGHT", 0).
emissionMap("(53[0])", "(53[1][0]|53[1][1][0]|77[1][0]|77ab|77bc)", "gasoline_euro4", "LIGHT", 0).
emissionMap("(53[0])", "(53[1][0]|53[1][1][0]|77[1][0]|77ab|77bc|77cd|53cd)", "gasoline_euro4", "LIGHT", 0).
emissionMap("(53[0])", "(53[1][0]|53[1][1][0]|77[1][0]|77ab|77bc|77cd)", "gasoline_euro4", "LIGHT", 0).
emissionMap("(53[0])", "(53[1][0])", "gasoline_euro4", "LIGHT", 0).
emissionMap("(53[0])", "(53[1][0]|53[1][1][0])", "gasoline_euro4", "LIGHT", 0).
emissionMap("(53[0])", "None", "gasoline_euro4", "LIGHT", 0).
emissionMap("(53[0]|53[1][0])", "79", "gasoline_euro4", "LIGHT", 0).
emissionMap("(53[0]|53[1][0])", "(53[1][1][0]|77[1][0])", "gasoline_euro4", "LIGHT", 0).
emissionMap("(53[0]|53[1][0])", "(53[1][1][0]|77[1][0]|77ab)", "gasoline_euro4", "LIGHT", 0).
emissionMap("(53[0]|53[1][0])", "(53[1][1][0]|77[1][0]|77ab|77bc)", "gasoline_euro4", "LIGHT", 0).
emissionMap("(53[0]|53[1][0])", "(53[1][1][0]|77[1][0]|77ab|77bc|77cd|53cd)", "gasoline_euro4", "LIGHT", 0).
emissionMap("(53[0]|53[1][0])", "(53[1][1][0]|77[1][0]|77ab|77bc|77cd)", "gasoline_euro4", "LIGHT", 0).
emissionMap("(53[0]|53[1][0])", "(53[1][1][0])", "gasoline_euro4", "LIGHT", 0).
emissionMap("(53[0]|53[1][0])", "None", "gasoline_euro4", "LIGHT", 0).
emissionMap("(53[0]|53[1][0]|53[1][1][0])", "(77[1][0])", "gasoline_euro4", "LIGHT", 0).
emissionMap("(53[0]|53[1][0]|53[1][1][0])", "(77[1][0]|77ab)", "gasoline_euro4", "LIGHT", 0).
emissionMap("(53[0]|53[1][0]|53[1][1][0])", "(77[1][0]|77ab|77bc)", "gasoline_euro4", "LIGHT", 0).
emissionMap("(53[0]|53[1][0]|53[1][1][0])", "(77[1][0]|77ab|77bc|77cd|53cd)", "gasoline_euro4", "LIGHT", 0).
emissionMap("(53[0]|53[1][0]|53[1][1][0])", "(77[1][0]|77ab|77bc|77cd)", "gasoline_euro4", "LIGHT", 0).
emissionMap("(53[0]|53[1][0]|53[1][1][0])", "None", "gasoline_euro4", "LIGHT", 0).
emissionMap("(53cd|53[0]|53[1][0]|53[1][1][0]|77[1][0])", "77[1][1]", "gasoline_euro4", "LIGHT", 0).
emissionMap("(53cd|53[0]|53[1][0]|53[1][1][0]|77[1][0])", "(77ab)", "gasoline_euro4", "LIGHT", 0).
emissionMap("(53cd|53[0]|53[1][0]|53[1][1][0]|77[1][0])", "(77ab|77bc)", "gasoline_euro4", "LIGHT", 0).
emissionMap("(53cd|53[0]|53[1][0]|53[1][1][0]|77[1][0])", "(77ab|77bc|77cd)", "gasoline_euro4", "LIGHT", 0).
emissionMap("(53cd|53[0]|53[1][0]|53[1][1][0]|77[1][0])", "None", "gasoline_euro4", "LIGHT", 0).
emissionMap("(53cd|53[0]|53[1][0]|53[1][1][0]|77[1][0]|77ab)", "(77bc)", "gasoline_euro4", "LIGHT", 0).
emissionMap("(53cd|53[0]|53[1][0]|53[1][1][0]|77[1][0]|77ab)", "(77bc|77cd)", "gasoline_euro4", "LIGHT", 0).
emissionMap("(53cd|53[0]|53[1][0]|53[1][1][0]|77[1][0]|77ab)", "None", "gasoline_euro4", "LIGHT", 0).
emissionMap("(53cd|53[0]|53[1][0]|53[1][1][0]|77[1][0]|77ab|77bc)", "21a", "gasoline_euro4", "LIGHT", 0).
emissionMap("(53cd|53[0]|53[1][0]|53[1][1][0]|77[1][0]|77ab|77bc)", "(77cd)", "gasoline_euro4", "LIGHT", 0).
emissionMap("(53cd|53[0]|53[1][0]|53[1][1][0]|77[1][0]|77ab|77bc)", "None", "gasoline_euro4", "LIGHT", 0).
emissionMap("(53cd)", "82", "gasoline_euro4", "LIGHT", 0).
emissionMap("(53cd)", "(53[0]|53[1][0]|53[1][1][0]|77[1][0])", "gasoline_euro4", "LIGHT", 0).
emissionMap("(53cd)", "(53[0]|53[1][0]|53[1][1][0]|77[1][0]|77ab)", "gasoline_euro4", "LIGHT", 0).
emissionMap("(53cd)", "(53[0]|53[1][0]|53[1][1][0]|77[1][0]|77ab|77bc)", "gasoline_euro4", "LIGHT", 0).
emissionMap("(53cd)", "(53[0]|53[1][0]|53[1][1][0]|77[1][0]|77ab|77bc|77cd)", "gasoline_euro4", "LIGHT", 0).
emissionMap("(53cd)", "(53[0])", "gasoline_euro4", "LIGHT", 0).
emissionMap("(53cd)", "(53[0]|53[1][0])", "gasoline_euro4", "LIGHT", 0).
emissionMap("(53cd)", "(53[0]|53[1][0]|53[1][1][0])", "gasoline_euro4", "LIGHT", 0).
emissionMap("(53cd)", "None", "gasoline_euro4", "LIGHT", 0).
emissionMap("(53cd|53[0])", "78[1][1]", "gasoline_euro4", "LIGHT", 0).
emissionMap("(53cd|53[0])", "(53[1][0]|53[1][1][0]|77[1][0])", "gasoline_euro4", "LIGHT", 0).
emissionMap("(53cd|53[0])", "(53[1][0]|53[1][1][0]|77[1][0]|77ab)", "gasoline_euro4", "LIGHT", 0).
emissionMap("(53cd|53[0])", "(53[1][0]|53[1][1][0]|77[1][0]|77ab|77bc)", "gasoline_euro4", "LIGHT", 0).
emissionMap("(53cd|53[0])", "(53[1][0]|53[1][1][0]|77[1][0]|77ab|77bc|77cd)", "gasoline_euro4", "LIGHT", 0).
emissionMap("(53cd|53[0])", "(53[1][0])", "gasoline_euro4", "LIGHT", 0).
emissionMap("(53cd|53[0])", "(53[1][0]|53[1][1][0])", "gasoline_euro4", "LIGHT", 0).
emissionMap("(53cd|53[0])", "None", "gasoline_euro4", "LIGHT", 0).
emissionMap("(53cd|53[0]|53[1][0])", "79", "gasoline_euro4", "LIGHT", 0).
emissionMap("(53cd|53[0]|53[1][0])", "(53[1][1][0]|77[1][0])", "gasoline_euro4", "LIGHT", 0).
emissionMap("(53cd|53[0]|53[1][0])", "(53[1][1][0]|77[1][0]|77ab)", "gasoline_euro4", "LIGHT", 0).
emissionMap("(53cd|53[0]|53[1][0])", "(53[1][1][0]|77[1][0]|77ab|77bc)", "gasoline_euro4", "LIGHT", 0).
emissionMap("(53cd|53[0]|53[1][0])", "(53[1][1][0]|77[1][0]|77ab|77bc|77cd)", "gasoline_euro4", "LIGHT", 0).
emissionMap("(53cd|53[0]|53[1][0])", "(53[1][1][0])", "gasoline_euro4", "LIGHT", 0).
emissionMap("(53cd|53[0]|53[1][0])", "None", "gasoline_euro4", "LIGHT", 0).
emissionMap("(53cd|53[0]|53[1][0]|53[1][1][0])", "(77[1][0])", "gasoline_euro4", "LIGHT", 0).
emissionMap("(53cd|53[0]|53[1][0]|53[1][1][0])", "(77[1][0]|77ab)", "gasoline_euro4", "LIGHT", 0).
emissionMap("(53cd|53[0]|53[1][0]|53[1][1][0])", "(77[1][0]|77ab|77bc)", "gasoline_euro4", "LIGHT", 0).
emissionMap("(53cd|53[0]|53[1][0]|53[1][1][0])", "(77[1][0]|77ab|77bc|77cd)", "gasoline_euro4", "LIGHT", 0).
emissionMap("(53cd|53[0]|53[1][0]|53[1][1][0])", "None", "gasoline_euro4", "LIGHT", 0).
emissionMap("(53[1][0]|53[1][1][0]|77[1][0])", "77[1][1]", "gasoline_euro4", "LIGHT", 0).
emissionMap("(53[1][0]|53[1][1][0]|77[1][0])", "(77ab)", "gasoline_euro4", "LIGHT", 0).
emissionMap("(53[1][0]|53[1][1][0]|77[1][0])", "(77ab|77bc)", "gasoline_euro4", "LIGHT", 0).
emissionMap("(53[1][0]|53[1][1][0]|77[1][0])", "(77ab|77bc|77cd|53cd)", "gasoline_euro4", "LIGHT", 0).
emissionMap("(53[1][0]|53[1][1][0]|77[1][0])", "(77ab|77bc|77cd)", "gasoline_euro4", "LIGHT", 0).
emissionMap("(53[1][0]|53[1][1][0]|77[1][0])", "(77ab|77bc|77cd|53cd|53[0])", "gasoline_euro4", "LIGHT", 0).
emissionMap("(53[1][0]|53[1][1][0]|77[1][0])", "None", "gasoline_euro4", "LIGHT", 0).
emissionMap("(53[1][0]|53[1][1][0]|77[1][0]|77ab)", "(77bc)", "gasoline_euro4", "LIGHT", 0).
emissionMap("(53[1][0]|53[1][1][0]|77[1][0]|77ab)", "(77bc|77cd|53cd)", "gasoline_euro4", "LIGHT", 0).
emissionMap("(53[1][0]|53[1][1][0]|77[1][0]|77ab)", "(77bc|77cd)", "gasoline_euro4", "LIGHT", 0).
emissionMap("(53[1][0]|53[1][1][0]|77[1][0]|77ab)", "(77bc|77cd|53cd|53[0])", "gasoline_euro4", "LIGHT", 0).
emissionMap("(53[1][0]|53[1][1][0]|77[1][0]|77ab)", "None", "gasoline_euro4", "LIGHT", 0).
emissionMap("(53[1][0]|53[1][1][0]|77[1][0]|77ab|77bc)", "21a", "gasoline_euro4", "LIGHT", 0).
emissionMap("(53[1][0]|53[1][1][0]|77[1][0]|77ab|77bc)", "(77cd|53cd)", "gasoline_euro4", "LIGHT", 0).
emissionMap("(53[1][0]|53[1][1][0]|77[1][0]|77ab|77bc)", "(77cd)", "gasoline_euro4", "LIGHT", 0).
emissionMap("(53[1][0]|53[1][1][0]|77[1][0]|77ab|77bc)", "(77cd|53cd|53[0])", "gasoline_euro4", "LIGHT", 0).
emissionMap("(53[1][0]|53[1][1][0]|77[1][0]|77ab|77bc)", "None", "gasoline_euro4", "LIGHT", 0).
emissionMap("(53[1][0]|53[1][1][0]|77[1][0]|77ab|77bc|77cd|53cd)", "82", "gasoline_euro4", "LIGHT", 0).
emissionMap("(53[1][0]|53[1][1][0]|77[1][0]|77ab|77bc|77cd|53cd)", "(53[0])", "gasoline_euro4", "LIGHT", 0).
emissionMap("(53[1][0]|53[1][1][0]|77[1][0]|77ab|77bc|77cd|53cd)", "None", "gasoline_euro4", "LIGHT", 0).
emissionMap("(53[1][0]|53[1][1][0]|77[1][0]|77ab|77bc|77cd)", "(53cd)", "gasoline_euro4", "LIGHT", 0).
emissionMap("(53[1][0]|53[1][1][0]|77[1][0]|77ab|77bc|77cd)", "(53cd|53[0])", "gasoline_euro4", "LIGHT", 0).
emissionMap("(53[1][0]|53[1][1][0]|77[1][0]|77ab|77bc|77cd)", "None", "gasoline_euro4", "LIGHT", 0).
emissionMap("(53[1][0])", "79", "gasoline_euro4", "LIGHT", 0).
emissionMap("(53[1][0])", "(53[1][1][0]|77[1][0])", "gasoline_euro4", "LIGHT", 0).
emissionMap("(53[1][0])", "(53[1][1][0]|77[1][0]|77ab)", "gasoline_euro4", "LIGHT", 0).
emissionMap("(53[1][0])", "(53[1][1][0]|77[1][0]|77ab|77bc)", "gasoline_euro4", "LIGHT", 0).
emissionMap("(53[1][0])", "(53[1][1][0]|77[1][0]|77ab|77bc|77cd|53cd)", "gasoline_euro4", "LIGHT", 0).
emissionMap("(53[1][0])", "(53[1][1][0]|77[1][0]|77ab|77bc|77cd)", "gasoline_euro4", "LIGHT", 0).
emissionMap("(53[1][0])", "(53[1][1][0]|77[1][0]|77ab|77bc|77cd|53cd|53[0])", "gasoline_euro4", "LIGHT", 0).
emissionMap("(53[1][0])", "(53[1][1][0])", "gasoline_euro4", "LIGHT", 0).
emissionMap("(53[1][0])", "None", "gasoline_euro4", "LIGHT", 0).
emissionMap("(53[1][0]|53[1][1][0])", "(77[1][0])", "gasoline_euro4", "LIGHT", 0).
emissionMap("(53[1][0]|53[1][1][0])", "(77[1][0]|77ab)", "gasoline_euro4", "LIGHT", 0).
emissionMap("(53[1][0]|53[1][1][0])", "(77[1][0]|77ab|77bc)", "gasoline_euro4", "LIGHT", 0).
emissionMap("(53[1][0]|53[1][1][0])", "(77[1][0]|77ab|77bc|77cd|53cd)", "gasoline_euro4", "LIGHT", 0).
emissionMap("(53[1][0]|53[1][1][0])", "(77[1][0]|77ab|77bc|77cd)", "gasoline_euro4", "LIGHT", 0).
emissionMap("(53[1][0]|53[1][1][0])", "(77[1][0]|77ab|77bc|77cd|53cd|53[0])", "gasoline_euro4", "LIGHT", 0).
emissionMap("(53[1][0]|53[1][1][0])", "None", "gasoline_euro4", "LIGHT", 0).
emissionMap("(53[1][1][0]|77[1][0])", "77[1][1]", "gasoline_euro4", "LIGHT", 0).
emissionMap("(53[1][1][0]|77[1][0])", "(77ab)", "gasoline_euro4", "LIGHT", 0).
emissionMap("(53[1][1][0]|77[1][0])", "(77ab|77bc)", "gasoline_euro4", "LIGHT", 0).
emissionMap("(53[1][1][0]|77[1][0])", "(77ab|77bc|77cd|53cd)", "gasoline_euro4", "LIGHT", 0).
emissionMap("(53[1][1][0]|77[1][0])", "(77ab|77bc|77cd)", "gasoline_euro4", "LIGHT", 0).
emissionMap("(53[1][1][0]|77[1][0])", "(77ab|77bc|77cd|53cd|53[0])", "gasoline_euro4", "LIGHT", 0).
emissionMap("(53[1][1][0]|77[1][0])", "(77ab|77bc|77cd|53cd|53[0]|53[1][0])", "gasoline_euro4", "LIGHT", 0).
emissionMap("(53[1][1][0]|77[1][0])", "None", "gasoline_euro4", "LIGHT", 0).
emissionMap("(53[1][1][0]|77[1][0]|77ab)", "(77bc)", "gasoline_euro4", "LIGHT", 0).
emissionMap("(53[1][1][0]|77[1][0]|77ab)", "(77bc|77cd|53cd)", "gasoline_euro4", "LIGHT", 0).
emissionMap("(53[1][1][0]|77[1][0]|77ab)", "(77bc|77cd)", "gasoline_euro4", "LIGHT", 0).
emissionMap("(53[1][1][0]|77[1][0]|77ab)", "(77bc|77cd|53cd|53[0])", "gasoline_euro4", "LIGHT", 0).
emissionMap("(53[1][1][0]|77[1][0]|77ab)", "(77bc|77cd|53cd|53[0]|53[1][0])", "gasoline_euro4", "LIGHT", 0).
emissionMap("(53[1][1][0]|77[1][0]|77ab)", "None", "gasoline_euro4", "LIGHT", 0).
emissionMap("(53[1][1][0]|77[1][0]|77ab|77bc)", "21a", "gasoline_euro4", "LIGHT", 0).
emissionMap("(53[1][1][0]|77[1][0]|77ab|77bc)", "(77cd|53cd)", "gasoline_euro4", "LIGHT", 0).
emissionMap("(53[1][1][0]|77[1][0]|77ab|77bc)", "(77cd)", "gasoline_euro4", "LIGHT", 0).
emissionMap("(53[1][1][0]|77[1][0]|77ab|77bc)", "(77cd|53cd|53[0])", "gasoline_euro4", "LIGHT", 0).
emissionMap("(53[1][1][0]|77[1][0]|77ab|77bc)", "(77cd|53cd|53[0]|53[1][0])", "gasoline_euro4", "LIGHT", 0).
emissionMap("(53[1][1][0]|77[1][0]|77ab|77bc)", "None", "gasoline_euro4", "LIGHT", 0).
emissionMap("(53[1][1][0]|77[1][0]|77ab|77bc|77cd|53cd)", "82", "gasoline_euro4", "LIGHT", 0).
emissionMap("(53[1][1][0]|77[1][0]|77ab|77bc|77cd|53cd)", "(53[0])", "gasoline_euro4", "LIGHT", 0).
emissionMap("(53[1][1][0]|77[1][0]|77ab|77bc|77cd|53cd)", "(53[0]|53[1][0])", "gasoline_euro4", "LIGHT", 0).
emissionMap("(53[1][1][0]|77[1][0]|77ab|77bc|77cd|53cd)", "None", "gasoline_euro4", "LIGHT", 0).
emissionMap("(53[1][1][0]|77[1][0]|77ab|77bc|77cd)", "(53cd)", "gasoline_euro4", "LIGHT", 0).
emissionMap("(53[1][1][0]|77[1][0]|77ab|77bc|77cd)", "(53cd|53[0])", "gasoline_euro4", "LIGHT", 0).
emissionMap("(53[1][1][0]|77[1][0]|77ab|77bc|77cd)", "(53cd|53[0]|53[1][0])", "gasoline_euro4", "LIGHT", 0).
emissionMap("(53[1][1][0]|77[1][0]|77ab|77bc|77cd)", "None", "gasoline_euro4", "LIGHT", 0).
emissionMap("(53[1][1][0]|77[1][0]|77ab|77bc|77cd|53cd|53[0])", "78[1][1]", "gasoline_euro4", "LIGHT", 0).
emissionMap("(53[1][1][0]|77[1][0]|77ab|77bc|77cd|53cd|53[0])", "(53[1][0])", "gasoline_euro4", "LIGHT", 0).
emissionMap("(53[1][1][0]|77[1][0]|77ab|77bc|77cd|53cd|53[0])", "None", "gasoline_euro4", "LIGHT", 0).
emissionMap("(53[1][1][0])", "(77[1][0])", "gasoline_euro4", "LIGHT", 0).
emissionMap("(53[1][1][0])", "(77[1][0]|77ab)", "gasoline_euro4", "LIGHT", 0).
emissionMap("(53[1][1][0])", "(77[1][0]|77ab|77bc)", "gasoline_euro4", "LIGHT", 0).
emissionMap("(53[1][1][0])", "(77[1][0]|77ab|77bc|77cd|53cd)", "gasoline_euro4", "LIGHT", 0).
emissionMap("(53[1][1][0])", "(77[1][0]|77ab|77bc|77cd)", "gasoline_euro4", "LIGHT", 0).
emissionMap("(53[1][1][0])", "(77[1][0]|77ab|77bc|77cd|53cd|53[0])", "gasoline_euro4", "LIGHT", 0).
emissionMap("(53[1][1][0])", "(77[1][0]|77ab|77bc|77cd|53cd|53[0]|53[1][0])", "gasoline_euro4", "LIGHT", 0).
emissionMap("(53[1][1][0])", "None", "gasoline_euro4", "LIGHT", 0).
emissionMap("(77[1][0])", "77[1][1]", "gasoline_euro4", "LIGHT", 0).
emissionMap("(77[1][0])", "(77ab)", "gasoline_euro4", "LIGHT", 0).
emissionMap("(77[1][0])", "(77ab|77bc)", "gasoline_euro4", "LIGHT", 0).
emissionMap("(77[1][0])", "(77ab|77bc|77cd|53cd)", "gasoline_euro4", "LIGHT", 0).
emissionMap("(77[1][0])", "(77ab|77bc|77cd)", "gasoline_euro4", "LIGHT", 0).
emissionMap("(77[1][0])", "(77ab|77bc|77cd|53cd|53[0])", "gasoline_euro4", "LIGHT", 0).
emissionMap("(77[1][0])", "(77ab|77bc|77cd|53cd|53[0]|53[1][0])", "gasoline_euro4", "LIGHT", 0).
emissionMap("(77[1][0])", "(77ab|77bc|77cd|53cd|53[0]|53[1][0]|53[1][1][0])", "gasoline_euro4", "LIGHT", 0).
emissionMap("(77[1][0])", "None", "gasoline_euro4", "LIGHT", 0).
emissionMap("(77[1][0]|77ab)", "(77bc)", "gasoline_euro4", "LIGHT", 0).
emissionMap("(77[1][0]|77ab)", "(77bc|77cd|53cd)", "gasoline_euro4", "LIGHT", 0).
emissionMap("(77[1][0]|77ab)", "(77bc|77cd)", "gasoline_euro4", "LIGHT", 0).
emissionMap("(77[1][0]|77ab)", "(77bc|77cd|53cd|53[0])", "gasoline_euro4", "LIGHT", 0).
emissionMap("(77[1][0]|77ab)", "(77bc|77cd|53cd|53[0]|53[1][0])", "gasoline_euro4", "LIGHT", 0).
emissionMap("(77[1][0]|77ab)", "(77bc|77cd|53cd|53[0]|53[1][0]|53[1][1][0])", "gasoline_euro4", "LIGHT", 0).
emissionMap("(77[1][0]|77ab)", "None", "gasoline_euro4", "LIGHT", 0).
emissionMap("(77[1][0]|77ab|77bc)", "21a", "gasoline_euro4", "LIGHT", 0).
emissionMap("(77[1][0]|77ab|77bc)", "(77cd|53cd)", "gasoline_euro4", "LIGHT", 0).
emissionMap("(77[1][0]|77ab|77bc)", "(77cd)", "gasoline_euro4", "LIGHT", 0).
emissionMap("(77[1][0]|77ab|77bc)", "(77cd|53cd|53[0])", "gasoline_euro4", "LIGHT", 0).
emissionMap("(77[1][0]|77ab|77bc)", "(77cd|53cd|53[0]|53[1][0])", "gasoline_euro4", "LIGHT", 0).
emissionMap("(77[1][0]|77ab|77bc)", "(77cd|53cd|53[0]|53[1][0]|53[1][1][0])", "gasoline_euro4", "LIGHT", 0).
emissionMap("(77[1][0]|77ab|77bc)", "None", "gasoline_euro4", "LIGHT", 0).
emissionMap("(77[1][0]|77ab|77bc|77cd|53cd)", "82", "gasoline_euro4", "LIGHT", 0).
emissionMap("(77[1][0]|77ab|77bc|77cd|53cd)", "(53[0])", "gasoline_euro4", "LIGHT", 0).
emissionMap("(77[1][0]|77ab|77bc|77cd|53cd)", "(53[0]|53[1][0])", "gasoline_euro4", "LIGHT", 0).
emissionMap("(77[1][0]|77ab|77bc|77cd|53cd)", "(53[0]|53[1][0]|53[1][1][0])", "gasoline_euro4", "LIGHT", 0).
emissionMap("(77[1][0]|77ab|77bc|77cd|53cd)", "None", "gasoline_euro4", "LIGHT", 0).
emissionMap("(77[1][0]|77ab|77bc|77cd)", "(53cd)", "gasoline_euro4", "LIGHT", 0).
emissionMap("(77[1][0]|77ab|77bc|77cd)", "(53cd|53[0])", "gasoline_euro4", "LIGHT", 0).
emissionMap("(77[1][0]|77ab|77bc|77cd)", "(53cd|53[0]|53[1][0])", "gasoline_euro4", "LIGHT", 0).
emissionMap("(77[1][0]|77ab|77bc|77cd)", "(53cd|53[0]|53[1][0]|53[1][1][0])", "gasoline_euro4", "LIGHT", 0).
emissionMap("(77[1][0]|77ab|77bc|77cd)", "None", "gasoline_euro4", "LIGHT", 0).
emissionMap("(77[1][0]|77ab|77bc|77cd|53cd|53[0])", "78[1][1]", "gasoline_euro4", "LIGHT", 0).
emissionMap("(77[1][0]|77ab|77bc|77cd|53cd|53[0])", "(53[1][0])", "gasoline_euro4", "LIGHT", 0).
emissionMap("(77[1][0]|77ab|77bc|77cd|53cd|53[0])", "(53[1][0]|53[1][1][0])", "gasoline_euro4", "LIGHT", 0).
emissionMap("(77[1][0]|77ab|77bc|77cd|53cd|53[0])", "None", "gasoline_euro4", "LIGHT", 0).
emissionMap("(77[1][0]|77ab|77bc|77cd|53cd|53[0]|53[1][0])", "79", "gasoline_euro4", "LIGHT", 0).
emissionMap("(77[1][0]|77ab|77bc|77cd|53cd|53[0]|53[1][0])", "(53[1][1][0])", "gasoline_euro4", "LIGHT", 0).
emissionMap("(77[1][0]|77ab|77bc|77cd|53cd|53[0]|53[1][0])", "None", "gasoline_euro4", "LIGHT", 0).
emissionMap("1", "204a[0]", "gasoline_euro4", "HEAVY", 1).
emissionMap("1", "None", "gasoline_euro4", "HEAVY", 0).
emissionMap("10", "[13|104]", "gasoline_euro4", "HEAVY", 5).
emissionMap("10", "None", "gasoline_euro4", "HEAVY", 5).
emissionMap("103", "14", "gasoline_euro4", "HEAVY", 7).
emissionMap("103", "16", "gasoline_euro4", "HEAVY", 7).
emissionMap("103", "49", "gasoline_euro4", "HEAVY", 8).
emissionMap("103", "None", "gasoline_euro4", "HEAVY", 3).
emissionMap("104", "16", "gasoline_euro4", "HEAVY", 0).
emissionMap("104", "24", "gasoline_euro4", "HEAVY", 10).
emissionMap("104", "49", "gasoline_euro4", "HEAVY", 6).
emissionMap("104", "None", "gasoline_euro4", "HEAVY", 0).
emissionMap("109[0]", "109[1][0]+20003", "gasoline_euro4", "HEAVY", 0).
emissionMap("109[0]", "None", "gasoline_euro4", "HEAVY", 0).
emissionMap("109[1][0]+20003", "109[1][1]", "gasoline_euro4", "HEAVY", 0).
emissionMap("109[1][0]+20003", "None", "gasoline_euro4", "HEAVY", 0).
emissionMap("109[1][1]", "120", "gasoline_euro4", "HEAVY", 0).
emissionMap("109[1][1]", "[116|46]", "gasoline_euro4", "HEAVY", 0).
emissionMap("109[1][1]", "None", "gasoline_euro4", "HEAVY", 0).
emissionMap("11", "72[0]", "gasoline_euro4", "HEAVY", 2).
emissionMap("11", "84", "gasoline_euro4", "HEAVY", 2).
emissionMap("11", "86", "gasoline_euro4", "HEAVY", 0).
emissionMap("11", "None", "gasoline_euro4", "HEAVY", 0).
emissionMap("113", "118", "gasoline_euro4", "HEAVY", 4).
emissionMap("113", "209", "gasoline_euro4", "HEAVY", 0).
emissionMap("113", "None", "gasoline_euro4", "HEAVY", 1).
emissionMap("114", "None", "gasoline_euro4", "HEAVY", 0).
emissionMap("116", "46", "gasoline_euro4", "HEAVY", 1).
emissionMap("116", "None", "gasoline_euro4", "HEAVY", 1).
emissionMap("117", "209", "gasoline_euro4", "HEAVY", 9).
emissionMap("117", "None", "gasoline_euro4", "HEAVY", 9).
emissionMap("118", "119", "gasoline_euro4", "HEAVY", 2).
emissionMap("118", "65", "gasoline_euro4", "HEAVY", 21).
emissionMap("118", "None", "gasoline_euro4", "HEAVY", 4).
emissionMap("119", "[116|46]", "gasoline_euro4", "HEAVY", 6).
emissionMap("119", "None", "gasoline_euro4", "HEAVY", 6).
emissionMap("12", "67", "gasoline_euro4", "HEAVY", 1).
emissionMap("12", "86", "gasoline_euro4", "HEAVY", 3).
emissionMap("12", "None", "gasoline_euro4", "HEAVY", 2).
emissionMap("120", "117", "gasoline_euro4", "HEAVY", 63).
emissionMap("120", "65", "gasoline_euro4", "HEAVY", 39).
emissionMap("120", "None", "gasoline_euro4", "HEAVY", 48).
emissionMap("122", "1b", "gasoline_euro4", "HEAVY", 5).
emissionMap("122", "[3|2]", "gasoline_euro4", "HEAVY", 6).
emissionMap("122", "None", "gasoline_euro4", "HEAVY", 5).
emissionMap("124", "None", "gasoline_euro4", "HEAVY", 0).
emissionMap("127", "(77[1][0])", "gasoline_euro4", "HEAVY", 2).
emissionMap("127", "(77[1][0]|77ab)", "gasoline_euro4", "HEAVY", 2).
emissionMap("127", "(77[1][0]|77ab|77bc)", "gasoline_euro4", "HEAVY", 2).
emissionMap("127", "(77[1][0]|77ab|77bc|77cd|53cd)", "gasoline_euro4", "HEAVY", 2).
emissionMap("127", "(77[1][0]|77ab|77bc|77cd)", "gasoline_euro4", "HEAVY", 2).
emissionMap("127", "(77[1][0]|77ab|77bc|77cd|53cd|53[0])", "gasoline_euro4", "HEAVY", 3).
emissionMap("127", "(77[1][0]|77ab|77bc|77cd|53cd|53[0]|53[1][0])", "gasoline_euro4", "HEAVY", 2).
emissionMap("127", "None", "gasoline_euro4", "HEAVY", 2).
emissionMap("13", "104", "gasoline_euro4", "HEAVY", 0).
emissionMap("13", "None", "gasoline_euro4", "HEAVY", 0).
emissionMap("131", "117", "gasoline_euro4", "HEAVY", 62).
emissionMap("131", "119", "gasoline_euro4", "HEAVY", 50).
emissionMap("131", "65", "gasoline_euro4", "HEAVY", 51).
emissionMap("131", "None", "gasoline_euro4", "HEAVY", 55).
emissionMap("133", "31", "gasoline_euro4", "HEAVY", 4).
emissionMap("133", "None", "gasoline_euro4", "HEAVY", 4).
emissionMap("134", "[134b|133]", "gasoline_euro4", "HEAVY", 0).
emissionMap("134", "None", "gasoline_euro4", "HEAVY", 0).
emissionMap("134b", "133", "gasoline_euro4", "HEAVY", 5).
emissionMap("134b", "None", "gasoline_euro4", "HEAVY", 5).
emissionMap("135", "[181|18]", "gasoline_euro4", "HEAVY", 65).
emissionMap("135", "None", "gasoline_euro4", "HEAVY", 67).
emissionMap("136", "135", "gasoline_euro4", "HEAVY", 6).
emissionMap("136", "None", "gasoline_euro4", "HEAVY", 6).
emissionMap("137", "180", "gasoline_euro4", "HEAVY", 4).
emissionMap("137", "None", "gasoline_euro4", "HEAVY", 4).
emissionMap("138", "137", "gasoline_euro4", "HEAVY", 7).
emissionMap("138", "None", "gasoline_euro4", "HEAVY", 7).
emissionMap("14", "9", "gasoline_euro4", "HEAVY", 4).
emissionMap("14", "None", "gasoline_euro4", "HEAVY", 4).
emissionMap("15", "14", "gasoline_euro4", "HEAVY", 5).
emissionMap("15", "24", "gasoline_euro4", "HEAVY", 5).
emissionMap("15", "49", "gasoline_euro4", "HEAVY", 5).
emissionMap("15", "None", "gasoline_euro4", "HEAVY", 6).
emissionMap("153", "[87[0]|20001+87[1][0]|87[1][1]]", "gasoline_euro4", "HEAVY", 22).
emissionMap("153", "None", "gasoline_euro4", "HEAVY", 22).
emissionMap("159", "42", "gasoline_euro4", "HEAVY", 5).
emissionMap("159", "None", "gasoline_euro4", "HEAVY", 5).
emissionMap("16", "37", "gasoline_euro4", "HEAVY", 1).
emissionMap("16", "None", "gasoline_euro4", "HEAVY", 1).
emissionMap("160", "61", "gasoline_euro4", "HEAVY", 29).
emissionMap("160", "None", "gasoline_euro4", "HEAVY", 30).
emissionMap("161", "122", "gasoline_euro4", "HEAVY", 3).
emissionMap("161", "194", "gasoline_euro4", "HEAVY", 9).
emissionMap("161", "None", "gasoline_euro4", "HEAVY", 2).
emissionMap("165", "166", "gasoline_euro4", "HEAVY", 49).
emissionMap("165", "31", "gasoline_euro4", "HEAVY", 49).
emissionMap("165", "[134b|133]", "gasoline_euro4", "HEAVY", 49).
emissionMap("165", "None", "gasoline_euro4", "HEAVY", 51).
emissionMap("166", "None", "gasoline_euro4", "HEAVY", 0).
emissionMap("17", "71", "gasoline_euro4", "HEAVY", 3).
emissionMap("17", "None", "gasoline_euro4", "HEAVY", 3).
emissionMap("171", "161", "gasoline_euro4", "HEAVY", 20).
emissionMap("171", "None", "gasoline_euro4", "HEAVY", 19).
emissionMap("173", "58[0]", "gasoline_euro4", "HEAVY", 19).
emissionMap("173", "62", "gasoline_euro4", "HEAVY", 20).
emissionMap("173", "None", "gasoline_euro4", "HEAVY", 21).
emissionMap("18", "69", "gasoline_euro4", "HEAVY", 0).
emissionMap("18", "[17|71]", "gasoline_euro4", "HEAVY", 2).
emissionMap("18", "None", "gasoline_euro4", "HEAVY", 0).
emissionMap("180", "[136|135]", "gasoline_euro4", "HEAVY", 57).
emissionMap("180", "[181|18]", "gasoline_euro4", "HEAVY", 61).
emissionMap("180", "None", "gasoline_euro4", "HEAVY", 56).
emissionMap("181", "18", "gasoline_euro4", "HEAVY", 2).
emissionMap("181", "None", "gasoline_euro4", "HEAVY", 1).
emissionMap("186", "[109[0]|109[1][0]+20003|109[1][1]]", "gasoline_euro4", "HEAVY", 0).
emissionMap("186", "None", "gasoline_euro4", "HEAVY", 0).
emissionMap("188", "[87[0]|20001+87[1][0]|87[1][1]]", "gasoline_euro4", "HEAVY", 2).
emissionMap("188", "None", "gasoline_euro4", "HEAVY", 2).
emissionMap("189[0]", "189[1][0]+20000", "gasoline_euro4", "HEAVY", 0).
emissionMap("189[0]", "None", "gasoline_euro4", "HEAVY", 0).
emissionMap("189[1][0]+20000", "189[1][1]", "gasoline_euro4", "HEAVY", 0).
emissionMap("189[1][0]+20000", "None", "gasoline_euro4", "HEAVY", 0).
emissionMap("189[1][1]", "188", "gasoline_euro4", "HEAVY", 56).
emissionMap("189[1][1]", "191", "gasoline_euro4", "HEAVY", 55).
emissionMap("189[1][1]", "None", "gasoline_euro4", "HEAVY", 51).
emissionMap("19", "103", "gasoline_euro4", "HEAVY", 28).
emissionMap("19", "[22|59]", "gasoline_euro4", "HEAVY", 27).
emissionMap("19", "None", "gasoline_euro4", "HEAVY", 28).
emissionMap("191", "69", "gasoline_euro4", "HEAVY", 17).
emissionMap("191", "[17|71]", "gasoline_euro4", "HEAVY", 18).
emissionMap("191", "None", "gasoline_euro4", "HEAVY", 17).
emissionMap("194", "91", "gasoline_euro4", "HEAVY", 14).
emissionMap("194", "None", "gasoline_euro4", "HEAVY", 14).
emissionMap("195", "159", "gasoline_euro4", "HEAVY", 14).
emissionMap("195", "61", "gasoline_euro4", "HEAVY", 15).
emissionMap("195", "None", "gasoline_euro4", "HEAVY", 14).
emissionMap("197", "[109[0]|109[1][0]+20003|109[1][1]]", "gasoline_euro4", "HEAVY", 8).
emissionMap("197", "None", "gasoline_euro4", "HEAVY", 8).
emissionMap("1b", "1", "gasoline_euro4", "HEAVY", 3).
emissionMap("1b", "None", "gasoline_euro4", "HEAVY", 3).
emissionMap("2", "4", "gasoline_euro4", "HEAVY", 1).
emissionMap("2", "[202|34]", "gasoline_euro4", "HEAVY", 1).
emissionMap("2", "None", "gasoline_euro4", "HEAVY", 0).
emissionMap("20", "219", "gasoline_euro4", "HEAVY", 0).
emissionMap("20", "None", "gasoline_euro4", "HEAVY", 0).
emissionMap("200", "60", "gasoline_euro4", "HEAVY", 1).
emissionMap("200", "None", "gasoline_euro4", "HEAVY", 1).
emissionMap("20001+87[1][0]", "87[1][1]", "gasoline_euro4", "HEAVY", 0).
emissionMap("20001+87[1][0]", "None", "gasoline_euro4", "HEAVY", 0).
emissionMap("20002+89[1][0]", "89[1][1]", "gasoline_euro4", "HEAVY", 0).
emissionMap("20002+89[1][0]", "None", "gasoline_euro4", "HEAVY", 0).
emissionMap("201", "201c", "gasoline_euro4", "HEAVY", 7).
emissionMap("201", "4c", "gasoline_euro4", "HEAVY", 27).
emissionMap("201", "None", "gasoline_euro4", "HEAVY", 7).
emissionMap("201c", "204a[0]", "gasoline_euro4", "HEAVY", 0).
emissionMap("201c", "None", "gasoline_euro4", "HEAVY", 0).
emissionMap("202", "34", "gasoline_euro4", "HEAVY", 4).
emissionMap("202", "None", "gasoline_euro4", "HEAVY", 4).
emissionMap("203[0]", "203[1]", "gasoline_euro4", "HEAVY", 81).
emissionMap("203[0]", "None", "gasoline_euro4", "HEAVY", 81).
emissionMap("203[1]", "203[1]b", "gasoline_euro4", "HEAVY", 11).
emissionMap("203[1]", "None", "gasoline_euro4", "HEAVY", 11).
emissionMap("203[1]b", "[202|34]", "gasoline_euro4", "HEAVY", 0).
emissionMap("203[1]b", "None", "gasoline_euro4", "HEAVY", 0).
emissionMap("204[1][0]", "204[1][1]", "gasoline_euro4", "HEAVY", 0).
emissionMap("204[1][0]", "None", "gasoline_euro4", "HEAVY", 0).
emissionMap("204[1][1]", "None", "gasoline_euro4", "HEAVY", 0).
emissionMap("204a[0]", "124", "gasoline_euro4", "HEAVY", 28).
emissionMap("204a[0]", "204b[0]", "gasoline_euro4", "HEAVY", 28).
emissionMap("204a[0]", "None", "gasoline_euro4", "HEAVY", 28).
emissionMap("204b[0]", "204[1][0]", "gasoline_euro4", "HEAVY", 0).
emissionMap("204b[0]", "54", "gasoline_euro4", "HEAVY", 0).
emissionMap("204b[0]", "None", "gasoline_euro4", "HEAVY", 0).
emissionMap("206", "30", "gasoline_euro4", "HEAVY", 1).
emissionMap("206", "32", "gasoline_euro4", "HEAVY", 1).
emissionMap("206", "None", "gasoline_euro4", "HEAVY", 1).
emissionMap("209", "None", "gasoline_euro4", "HEAVY", 0).
emissionMap("210", "43[0]", "gasoline_euro4", "HEAVY", 11).
emissionMap("210", "None", "gasoline_euro4", "HEAVY", 11).
emissionMap("211", "45", "gasoline_euro4", "HEAVY", 2).
emissionMap("211", "None", "gasoline_euro4", "HEAVY", 2).
emissionMap("212", "10", "gasoline_euro4", "HEAVY", 2).
emissionMap("212", "None", "gasoline_euro4", "HEAVY", 2).
emissionMap("218", "36", "gasoline_euro4", "HEAVY", 29).
emissionMap("218", "38", "gasoline_euro4", "HEAVY", 54).
emissionMap("218", "None", "gasoline_euro4", "HEAVY", 5).
emissionMap("219", "218", "gasoline_euro4", "HEAVY", 1).
emissionMap("219", "None", "gasoline_euro4", "HEAVY", 1).
emissionMap("21a", "21b", "gasoline_euro4", "HEAVY", 0).
emissionMap("21a", "None", "gasoline_euro4", "HEAVY", 0).
emissionMap("21b", "103", "gasoline_euro4", "HEAVY", 16).
emissionMap("21b", "20", "gasoline_euro4", "HEAVY", 16).
emissionMap("21b", "None", "gasoline_euro4", "HEAVY", 12).
emissionMap("22", "59", "gasoline_euro4", "HEAVY", 1).
emissionMap("22", "None", "gasoline_euro4", "HEAVY", 1).
emissionMap("220", "19", "gasoline_euro4", "HEAVY", 1).
emissionMap("220", "None", "gasoline_euro4", "HEAVY", 1).
emissionMap("220b", "218", "gasoline_euro4", "HEAVY", 4).
emissionMap("220b", "220", "gasoline_euro4", "HEAVY", 4).
emissionMap("220b", "None", "gasoline_euro4", "HEAVY", 4).
emissionMap("222", "None", "gasoline_euro4", "HEAVY", 0).
emissionMap("224[0]", "222", "gasoline_euro4", "HEAVY", 8).
emissionMap("224[0]", "224[1]", "gasoline_euro4", "HEAVY", 8).
emissionMap("224[0]", "None", "gasoline_euro4", "HEAVY", 8).
emissionMap("224[1]", "[136|135]", "gasoline_euro4", "HEAVY", 13).
emissionMap("224[1]", "[181|18]", "gasoline_euro4", "HEAVY", 21).
emissionMap("224[1]", "None", "gasoline_euro4", "HEAVY", 21).
emissionMap("24", "20", "gasoline_euro4", "HEAVY", 2).
emissionMap("24", "[22|59]", "gasoline_euro4", "HEAVY", 2).
emissionMap("24", "None", "gasoline_euro4", "HEAVY", 2).
emissionMap("25", "74", "gasoline_euro4", "HEAVY", 39).
emissionMap("25", "[68|11]", "gasoline_euro4", "HEAVY", 37).
emissionMap("25", "[80|127]", "gasoline_euro4", "HEAVY", 40).
emissionMap("25", "None", "gasoline_euro4", "HEAVY", 38).
emissionMap("26", "25", "gasoline_euro4", "HEAVY", 15).
emissionMap("26", "None", "gasoline_euro4", "HEAVY", 15).
emissionMap("28", "None", "gasoline_euro4", "HEAVY", 0).
emissionMap("3", "2", "gasoline_euro4", "HEAVY", 0).
emissionMap("3", "None", "gasoline_euro4", "HEAVY", 0).
emissionMap("30", "None", "gasoline_euro4", "HEAVY", 0).
emissionMap("31", "113", "gasoline_euro4", "HEAVY", 1).
emissionMap("31", "201", "gasoline_euro4", "HEAVY", 0).
emissionMap("31", "None", "gasoline_euro4", "HEAVY", 0).
emissionMap("32", "35", "gasoline_euro4", "HEAVY", 10).
emissionMap("32", "40", "gasoline_euro4", "HEAVY", 10).
emissionMap("32", "None", "gasoline_euro4", "HEAVY", 10).
emissionMap("33", "10", "gasoline_euro4", "HEAVY", 10).
emissionMap("33", "[211|45]", "gasoline_euro4", "HEAVY", 10).
emissionMap("33", "None", "gasoline_euro4", "HEAVY", 10).
emissionMap("34", "113", "gasoline_euro4", "HEAVY", 2).
emissionMap("34", "134", "gasoline_euro4", "HEAVY", 12).
emissionMap("34", "None", "gasoline_euro4", "HEAVY", 1).
emissionMap("35", "38", "gasoline_euro4", "HEAVY", 29).
emissionMap("35", "None", "gasoline_euro4", "HEAVY", 20).
emissionMap("36", "40", "gasoline_euro4", "HEAVY", 2).
emissionMap("36", "None", "gasoline_euro4", "HEAVY", 2).
emissionMap("37", "36", "gasoline_euro4", "HEAVY", 18).
emissionMap("37", "None", "gasoline_euro4", "HEAVY", 19).
emissionMap("38", "15", "gasoline_euro4", "HEAVY", 13).
emissionMap("38", "33", "gasoline_euro4", "HEAVY", 13).
emissionMap("38", "50", "gasoline_euro4", "HEAVY", 13).
emissionMap("38", "None", "gasoline_euro4", "HEAVY", 10).
emissionMap("39", "35", "gasoline_euro4", "HEAVY", 0).
emissionMap("39", "None", "gasoline_euro4", "HEAVY", 0).
emissionMap("4", "4c", "gasoline_euro4", "HEAVY", 0).
emissionMap("4", "None", "gasoline_euro4", "HEAVY", 0).
emissionMap("40", "153", "gasoline_euro4", "HEAVY", 1).
emissionMap("40", "41", "gasoline_euro4", "HEAVY", 1).
emissionMap("40", "93", "gasoline_euro4", "HEAVY", 1).
emissionMap("40", "None", "gasoline_euro4", "HEAVY", 1).
emissionMap("41", "160", "gasoline_euro4", "HEAVY", 0).
emissionMap("41", "None", "gasoline_euro4", "HEAVY", 0).
emissionMap("42", "153", "gasoline_euro4", "HEAVY", 0).
emissionMap("42", "39", "gasoline_euro4", "HEAVY", 0).
emissionMap("42", "None", "gasoline_euro4", "HEAVY", 0).
emissionMap("43[0]", "118", "gasoline_euro4", "HEAVY", 1).
emissionMap("43[0]", "43[1]", "gasoline_euro4", "HEAVY", 0).
emissionMap("43[0]", "None", "gasoline_euro4", "HEAVY", 0).
emissionMap("43[1]", "134", "gasoline_euro4", "HEAVY", 34).
emissionMap("43[1]", "201", "gasoline_euro4", "HEAVY", 25).
emissionMap("43[1]", "None", "gasoline_euro4", "HEAVY", 20).
emissionMap("44", "36", "gasoline_euro4", "HEAVY", 6).
emissionMap("44", "38", "gasoline_euro4", "HEAVY", 9).
emissionMap("44", "None", "gasoline_euro4", "HEAVY", 28).
emissionMap("45", "206", "gasoline_euro4", "HEAVY", 0).
emissionMap("45", "44", "gasoline_euro4", "HEAVY", 0).
emissionMap("45", "None", "gasoline_euro4", "HEAVY", 0).
emissionMap("46", "113", "gasoline_euro4", "HEAVY", 20).
emissionMap("46", "134", "gasoline_euro4", "HEAVY", 3).
emissionMap("46", "201", "gasoline_euro4", "HEAVY", 12).
emissionMap("46", "None", "gasoline_euro4", "HEAVY", 6).
emissionMap("48", "160", "gasoline_euro4", "HEAVY", 20).
emissionMap("48", "42", "gasoline_euro4", "HEAVY", 23).
emissionMap("48", "None", "gasoline_euro4", "HEAVY", 24).
emissionMap("49", "None", "gasoline_euro4", "HEAVY", 0).
emissionMap("4c", "None", "gasoline_euro4", "HEAVY", 0).
emissionMap("50", "19", "gasoline_euro4", "HEAVY", 11).
emissionMap("50", "219", "gasoline_euro4", "HEAVY", 11).
emissionMap("50", "None", "gasoline_euro4", "HEAVY", 7).
emissionMap("51", "19", "gasoline_euro4", "HEAVY", 10).
emissionMap("51", "219", "gasoline_euro4", "HEAVY", 5).
emissionMap("51", "None", "gasoline_euro4", "HEAVY", 7).
emissionMap("53[0]", "78[1][1]", "gasoline_euro4", "HEAVY", 0).
emissionMap("53[0]", "(53[1][0]|53[1][1][0]|77[1][0])", "gasoline_euro4", "HEAVY", 0).
emissionMap("53[0]", "(53[1][0]|53[1][1][0]|77[1][0]|77ab)", "gasoline_euro4", "HEAVY", 0).
emissionMap("53[0]", "(53[1][0]|53[1][1][0]|77[1][0]|77ab|77bc)", "gasoline_euro4", "HEAVY", 0).
emissionMap("53[0]", "(53[1][0]|53[1][1][0]|77[1][0]|77ab|77bc|77cd|53cd)", "gasoline_euro4", "HEAVY", 0).
emissionMap("53[0]", "(53[1][0]|53[1][1][0]|77[1][0]|77ab|77bc|77cd)", "gasoline_euro4", "HEAVY", 0).
emissionMap("53[0]", "(53[1][0])", "gasoline_euro4", "HEAVY", 0).
emissionMap("53[0]", "(53[1][0]|53[1][1][0])", "gasoline_euro4", "HEAVY", 0).
emissionMap("53[0]", "None", "gasoline_euro4", "HEAVY", 0).
emissionMap("53[1][0]", "79", "gasoline_euro4", "HEAVY", 0).
emissionMap("53[1][0]", "(53[1][1][0]|77[1][0])", "gasoline_euro4", "HEAVY", 0).
emissionMap("53[1][0]", "(53[1][1][0]|77[1][0]|77ab)", "gasoline_euro4", "HEAVY", 0).
emissionMap("53[1][0]", "(53[1][1][0]|77[1][0]|77ab|77bc)", "gasoline_euro4", "HEAVY", 0).
emissionMap("53[1][0]", "(53[1][1][0]|77[1][0]|77ab|77bc|77cd|53cd)", "gasoline_euro4", "HEAVY", 0).
emissionMap("53[1][0]", "(53[1][1][0]|77[1][0]|77ab|77bc|77cd)", "gasoline_euro4", "HEAVY", 0).
emissionMap("53[1][0]", "(53[1][1][0]|77[1][0]|77ab|77bc|77cd|53cd|53[0])", "gasoline_euro4", "HEAVY", 0).
emissionMap("53[1][0]", "(53[1][1][0])", "gasoline_euro4", "HEAVY", 0).
emissionMap("53[1][0]", "None", "gasoline_euro4", "HEAVY", 0).
emissionMap("53[1][1][0]", "(77[1][0])", "gasoline_euro4", "HEAVY", 0).
emissionMap("53[1][1][0]", "(77[1][0]|77ab)", "gasoline_euro4", "HEAVY", 0).
emissionMap("53[1][1][0]", "(77[1][0]|77ab|77bc)", "gasoline_euro4", "HEAVY", 0).
emissionMap("53[1][1][0]", "(77[1][0]|77ab|77bc|77cd|53cd)", "gasoline_euro4", "HEAVY", 0).
emissionMap("53[1][1][0]", "(77[1][0]|77ab|77bc|77cd)", "gasoline_euro4", "HEAVY", 0).
emissionMap("53[1][1][0]", "(77[1][0]|77ab|77bc|77cd|53cd|53[0])", "gasoline_euro4", "HEAVY", 0).
emissionMap("53[1][1][0]", "(77[1][0]|77ab|77bc|77cd|53cd|53[0]|53[1][0])", "gasoline_euro4", "HEAVY", 0).
emissionMap("53[1][1][0]", "None", "gasoline_euro4", "HEAVY", 0).
emissionMap("53cd", "82", "gasoline_euro4", "HEAVY", 0).
emissionMap("53cd", "(53[0]|53[1][0]|53[1][1][0]|77[1][0])", "gasoline_euro4", "HEAVY", 0).
emissionMap("53cd", "(53[0]|53[1][0]|53[1][1][0]|77[1][0]|77ab)", "gasoline_euro4", "HEAVY", 0).
emissionMap("53cd", "(53[0]|53[1][0]|53[1][1][0]|77[1][0]|77ab|77bc)", "gasoline_euro4", "HEAVY", 0).
emissionMap("53cd", "(53[0]|53[1][0]|53[1][1][0]|77[1][0]|77ab|77bc|77cd)", "gasoline_euro4", "HEAVY", 0).
emissionMap("53cd", "(53[0])", "gasoline_euro4", "HEAVY", 0).
emissionMap("53cd", "(53[0]|53[1][0])", "gasoline_euro4", "HEAVY", 0).
emissionMap("53cd", "(53[0]|53[1][0]|53[1][1][0])", "gasoline_euro4", "HEAVY", 0).
emissionMap("53cd", "None", "gasoline_euro4", "HEAVY", 0).
emissionMap("54", "None", "gasoline_euro4", "HEAVY", 0).
emissionMap("56a", "56b", "gasoline_euro4", "HEAVY", 0).
emissionMap("56a", "m1", "gasoline_euro4", "HEAVY", 0).
emissionMap("56a", "None", "gasoline_euro4", "HEAVY", 0).
emissionMap("56b", "(77bc|77cd|53cd|53[0]|53[1][0]|53[1][1][0]|77[1][0])", "gasoline_euro4", "HEAVY", 12).
emissionMap("56b", "(77bc)", "gasoline_euro4", "HEAVY", 11).
emissionMap("56b", "(77bc|77cd|53cd)", "gasoline_euro4", "HEAVY", 12).
emissionMap("56b", "(77bc|77cd)", "gasoline_euro4", "HEAVY", 12).
emissionMap("56b", "(77bc|77cd|53cd|53[0])", "gasoline_euro4", "HEAVY", 11).
emissionMap("56b", "(77bc|77cd|53cd|53[0]|53[1][0])", "gasoline_euro4", "HEAVY", 12).
emissionMap("56b", "(77bc|77cd|53cd|53[0]|53[1][0]|53[1][1][0])", "gasoline_euro4", "HEAVY", 12).
emissionMap("56b", "None", "gasoline_euro4", "HEAVY", 12).
emissionMap("57[0]", "57[1]", "gasoline_euro4", "HEAVY", 3).
emissionMap("57[0]", "None", "gasoline_euro4", "HEAVY", 4).
emissionMap("57[1]", "62", "gasoline_euro4", "HEAVY", 14).
emissionMap("57[1]", "None", "gasoline_euro4", "HEAVY", 18).
emissionMap("58[0]", "58[1]", "gasoline_euro4", "HEAVY", 1).
emissionMap("58[0]", "None", "gasoline_euro4", "HEAVY", 1).
emissionMap("58[1]", "197", "gasoline_euro4", "HEAVY", 5).
emissionMap("58[1]", "66", "gasoline_euro4", "HEAVY", 5).
emissionMap("58[1]", "[200|60]", "gasoline_euro4", "HEAVY", 8).
emissionMap("58[1]", "None", "gasoline_euro4", "HEAVY", 4).
emissionMap("59", "(53cd|53[0]|53[1][0]|53[1][1][0]|77[1][0])", "gasoline_euro4", "HEAVY", 13).
emissionMap("59", "(53cd|53[0]|53[1][0]|53[1][1][0]|77[1][0]|77ab)", "gasoline_euro4", "HEAVY", 41).
emissionMap("59", "(53cd|53[0]|53[1][0]|53[1][1][0]|77[1][0]|77ab|77bc)", "gasoline_euro4", "HEAVY", 14).
emissionMap("59", "(53cd)", "gasoline_euro4", "HEAVY", 13).
emissionMap("59", "(53cd|53[0])", "gasoline_euro4", "HEAVY", 14).
emissionMap("59", "(53cd|53[0]|53[1][0])", "gasoline_euro4", "HEAVY", 16).
emissionMap("59", "(53cd|53[0]|53[1][0]|53[1][1][0])", "gasoline_euro4", "HEAVY", 14).
emissionMap("59", "None", "gasoline_euro4", "HEAVY", 15).
emissionMap("60", "None", "gasoline_euro4", "HEAVY", 0).
emissionMap("61", "58[0]", "gasoline_euro4", "HEAVY", 4).
emissionMap("61", "None", "gasoline_euro4", "HEAVY", 4).
emissionMap("62", "159", "gasoline_euro4", "HEAVY", 4).
emissionMap("62", "None", "gasoline_euro4", "HEAVY", 4).
emissionMap("65", "197", "gasoline_euro4", "HEAVY", 3).
emissionMap("65", "57[0]", "gasoline_euro4", "HEAVY", 3).
emissionMap("65", "[200|60]", "gasoline_euro4", "HEAVY", 2).
emissionMap("65", "None", "gasoline_euro4", "HEAVY", 5).
emissionMap("66", "117", "gasoline_euro4", "HEAVY", 15).
emissionMap("66", "119", "gasoline_euro4", "HEAVY", 15).
emissionMap("66", "None", "gasoline_euro4", "HEAVY", 15).
emissionMap("67", "[80|127]", "gasoline_euro4", "HEAVY", 1).
emissionMap("67", "[26|25]", "gasoline_euro4", "HEAVY", 1).
emissionMap("67", "None", "gasoline_euro4", "HEAVY", 1).
emissionMap("68", "11", "gasoline_euro4", "HEAVY", 0).
emissionMap("68", "None", "gasoline_euro4", "HEAVY", 0).
emissionMap("69", "161", "gasoline_euro4", "HEAVY", 3).
emissionMap("69", "None", "gasoline_euro4", "HEAVY", 3).
emissionMap("71", "67", "gasoline_euro4", "HEAVY", 33).
emissionMap("71", "84", "gasoline_euro4", "HEAVY", 4).
emissionMap("71", "86", "gasoline_euro4", "HEAVY", 2).
emissionMap("71", "None", "gasoline_euro4", "HEAVY", 3).
emissionMap("72[0]", "72[1]", "gasoline_euro4", "HEAVY", 43).
emissionMap("72[0]", "None", "gasoline_euro4", "HEAVY", 0).
emissionMap("72[1]", "69", "gasoline_euro4", "HEAVY", 6).
emissionMap("72[1]", "None", "gasoline_euro4", "HEAVY", 4).
emissionMap("74", "72[1]", "gasoline_euro4", "HEAVY", 23).
emissionMap("74", "None", "gasoline_euro4", "HEAVY", 23).
emissionMap("75", "51", "gasoline_euro4", "HEAVY", 4).
emissionMap("75", "None", "gasoline_euro4", "HEAVY", 4).
emissionMap("77[1][0]", "77[1][1]", "gasoline_euro4", "HEAVY", 0).
emissionMap("77[1][0]", "(77ab)", "gasoline_euro4", "HEAVY", 0).
emissionMap("77[1][0]", "(77ab|77bc)", "gasoline_euro4", "HEAVY", 0).
emissionMap("77[1][0]", "(77ab|77bc|77cd|53cd)", "gasoline_euro4", "HEAVY", 0).
emissionMap("77[1][0]", "(77ab|77bc|77cd)", "gasoline_euro4", "HEAVY", 0).
emissionMap("77[1][0]", "(77ab|77bc|77cd|53cd|53[0])", "gasoline_euro4", "HEAVY", 0).
emissionMap("77[1][0]", "(77ab|77bc|77cd|53cd|53[0]|53[1][0])", "gasoline_euro4", "HEAVY", 0).
emissionMap("77[1][0]", "(77ab|77bc|77cd|53cd|53[0]|53[1][0]|53[1][1][0])", "gasoline_euro4", "HEAVY", 0).
emissionMap("77[1][0]", "None", "gasoline_euro4", "HEAVY", 0).
emissionMap("77[1][1]", "None", "gasoline_euro4", "HEAVY", 0).
emissionMap("77ab", "(77bc|77cd|53cd|53[0]|53[1][0]|53[1][1][0]|77[1][0])", "gasoline_euro4", "HEAVY", 0).
emissionMap("77ab", "(77bc)", "gasoline_euro4", "HEAVY", 0).
emissionMap("77ab", "(77bc|77cd|53cd)", "gasoline_euro4", "HEAVY", 0).
emissionMap("77ab", "(77bc|77cd)", "gasoline_euro4", "HEAVY", 0).
emissionMap("77ab", "(77bc|77cd|53cd|53[0])", "gasoline_euro4", "HEAVY", 0).
emissionMap("77ab", "(77bc|77cd|53cd|53[0]|53[1][0])", "gasoline_euro4", "HEAVY", 0).
emissionMap("77ab", "(77bc|77cd|53cd|53[0]|53[1][0]|53[1][1][0])", "gasoline_euro4", "HEAVY", 0).
emissionMap("77ab", "None", "gasoline_euro4", "HEAVY", 0).
emissionMap("77bc", "21a", "gasoline_euro4", "HEAVY", 0).
emissionMap("77bc", "(77cd|53cd|53[0]|53[1][0]|53[1][1][0]|77[1][0])", "gasoline_euro4", "HEAVY", 0).
emissionMap("77bc", "(77cd|53cd|53[0]|53[1][0]|53[1][1][0]|77[1][0]|77ab)", "gasoline_euro4", "HEAVY", 0).
emissionMap("77bc", "(77cd|53cd)", "gasoline_euro4", "HEAVY", 0).
emissionMap("77bc", "(77cd)", "gasoline_euro4", "HEAVY", 0).
emissionMap("77bc", "(77cd|53cd|53[0])", "gasoline_euro4", "HEAVY", 0).
emissionMap("77bc", "(77cd|53cd|53[0]|53[1][0])", "gasoline_euro4", "HEAVY", 0).
emissionMap("77bc", "(77cd|53cd|53[0]|53[1][0]|53[1][1][0])", "gasoline_euro4", "HEAVY", 0).
emissionMap("77bc", "None", "gasoline_euro4", "HEAVY", 0).
emissionMap("77cd", "(53cd|53[0]|53[1][0]|53[1][1][0]|77[1][0])", "gasoline_euro4", "HEAVY", 0).
emissionMap("77cd", "(53cd|53[0]|53[1][0]|53[1][1][0]|77[1][0]|77ab)", "gasoline_euro4", "HEAVY", 0).
emissionMap("77cd", "(53cd|53[0]|53[1][0]|53[1][1][0]|77[1][0]|77ab|77bc)", "gasoline_euro4", "HEAVY", 0).
emissionMap("77cd", "(53cd)", "gasoline_euro4", "HEAVY", 0).
emissionMap("77cd", "(53cd|53[0])", "gasoline_euro4", "HEAVY", 0).
emissionMap("77cd", "(53cd|53[0]|53[1][0])", "gasoline_euro4", "HEAVY", 0).
emissionMap("77cd", "(53cd|53[0]|53[1][0]|53[1][1][0])", "gasoline_euro4", "HEAVY", 0).
emissionMap("77cd", "None", "gasoline_euro4", "HEAVY", 0).
emissionMap("78[0]", "56a", "gasoline_euro4", "HEAVY", 13).
emissionMap("78[0]", "None", "gasoline_euro4", "HEAVY", 13).
emissionMap("78[1][1]", "75", "gasoline_euro4", "HEAVY", 0).
emissionMap("78[1][1]", "[189[0]|189[1][0]+20000|189[1][1]]", "gasoline_euro4", "HEAVY", 0).
emissionMap("78[1][1]", "None", "gasoline_euro4", "HEAVY", 0).
emissionMap("79", "74", "gasoline_euro4", "HEAVY", 12).
emissionMap("79", "[68|11]", "gasoline_euro4", "HEAVY", 11).
emissionMap("79", "[26|25]", "gasoline_euro4", "HEAVY", 17).
emissionMap("79", "None", "gasoline_euro4", "HEAVY", 16).
emissionMap("8", "9", "gasoline_euro4", "HEAVY", 1).
emissionMap("8", "[13|104]", "gasoline_euro4", "HEAVY", 1).
emissionMap("8", "None", "gasoline_euro4", "HEAVY", 1).
emissionMap("80", "127", "gasoline_euro4", "HEAVY", 2).
emissionMap("80", "None", "gasoline_euro4", "HEAVY", 2).
emissionMap("82", "51", "gasoline_euro4", "HEAVY", 0).
emissionMap("82", "None", "gasoline_euro4", "HEAVY", 0).
emissionMap("83", "12", "gasoline_euro4", "HEAVY", 0).
emissionMap("83", "None", "gasoline_euro4", "HEAVY", 0).
emissionMap("84", "180", "gasoline_euro4", "HEAVY", 55).
emissionMap("84", "[138|137]", "gasoline_euro4", "HEAVY", 54).
emissionMap("84", "None", "gasoline_euro4", "HEAVY", 54).
emissionMap("85", "67", "gasoline_euro4", "HEAVY", 62).
emissionMap("85", "72[0]", "gasoline_euro4", "HEAVY", 57).
emissionMap("85", "84", "gasoline_euro4", "HEAVY", 56).
emissionMap("85", "None", "gasoline_euro4", "HEAVY", 50).
emissionMap("86", "None", "gasoline_euro4", "HEAVY", 0).
emissionMap("87[0]", "20001+87[1][0]", "gasoline_euro4", "HEAVY", 0).
emissionMap("87[0]", "None", "gasoline_euro4", "HEAVY", 0).
emissionMap("87[1][1]", "97", "gasoline_euro4", "HEAVY", 0).
emissionMap("87[1][1]", "m90", "gasoline_euro4", "HEAVY", 0).
emissionMap("87[1][1]", "None", "gasoline_euro4", "HEAVY", 0).
emissionMap("89[0]", "20002+89[1][0]", "gasoline_euro4", "HEAVY", 2).
emissionMap("89[0]", "None", "gasoline_euro4", "HEAVY", 2).
emissionMap("89[1][1]", "91", "gasoline_euro4", "HEAVY", 0).
emissionMap("89[1][1]", "None", "gasoline_euro4", "HEAVY", 0).
emissionMap("9", "[211|45]", "gasoline_euro4", "HEAVY", 1).
emissionMap("9", "None", "gasoline_euro4", "HEAVY", 1).
emissionMap("91", "173", "gasoline_euro4", "HEAVY", 0).
emissionMap("91", "186", "gasoline_euro4", "HEAVY", 0).
emissionMap("91", "None", "gasoline_euro4", "HEAVY", 0).
emissionMap("93", "28", "gasoline_euro4", "HEAVY", 3).
emissionMap("93", "48", "gasoline_euro4", "HEAVY", 3).
emissionMap("93", "None", "gasoline_euro4", "HEAVY", 3).
emissionMap("97", "160", "gasoline_euro4", "HEAVY", 44).
emissionMap("97", "42", "gasoline_euro4", "HEAVY", 46).
emissionMap("97", "None", "gasoline_euro4", "HEAVY", 46).
emissionMap("m1", "21b", "gasoline_euro4", "HEAVY", 0).
emissionMap("m1", "None", "gasoline_euro4", "HEAVY", 0).
emissionMap("m2", "54", "gasoline_euro4", "HEAVY", 0).
emissionMap("m2", "None", "gasoline_euro4", "HEAVY", 0).
emissionMap("m90", "171", "gasoline_euro4", "HEAVY", 0).
emissionMap("m90", "[89[0]|20002+89[1][0]|89[1][1]]", "gasoline_euro4", "HEAVY", 0).
emissionMap("m90", "None", "gasoline_euro4", "HEAVY", 0).
emissionMap("[13|104]", "16", "gasoline_euro4", "HEAVY", 2).
emissionMap("[13|104]", "24", "gasoline_euro4", "HEAVY", 2).
emissionMap("[13|104]", "49", "gasoline_euro4", "HEAVY", 1).
emissionMap("[13|104]", "None", "gasoline_euro4", "HEAVY", 2).
emissionMap("[109[0]|109[1][0]+20003|109[1][1]]", "120", "gasoline_euro4", "HEAVY", 0).
emissionMap("[109[0]|109[1][0]+20003|109[1][1]]", "[116|46]", "gasoline_euro4", "HEAVY", 0).
emissionMap("[109[0]|109[1][0]+20003|109[1][1]]", "None", "gasoline_euro4", "HEAVY", 0).
emissionMap("[68|11]", "72[0]", "gasoline_euro4", "HEAVY", 4).
emissionMap("[68|11]", "84", "gasoline_euro4", "HEAVY", 3).
emissionMap("[68|11]", "86", "gasoline_euro4", "HEAVY", 1).
emissionMap("[68|11]", "None", "gasoline_euro4", "HEAVY", 1).
emissionMap("[116|46]", "113", "gasoline_euro4", "HEAVY", 31).
emissionMap("[116|46]", "134", "gasoline_euro4", "HEAVY", 27).
emissionMap("[116|46]", "201", "gasoline_euro4", "HEAVY", 23).
emissionMap("[116|46]", "None", "gasoline_euro4", "HEAVY", 28).
emissionMap("[83|12]", "67", "gasoline_euro4", "HEAVY", 10).
emissionMap("[83|12]", "86", "gasoline_euro4", "HEAVY", 11).
emissionMap("[83|12]", "None", "gasoline_euro4", "HEAVY", 8).
emissionMap("[80|127]", "(77[1][0])", "gasoline_euro4", "HEAVY", 6).
emissionMap("[80|127]", "(77[1][0]|77ab)", "gasoline_euro4", "HEAVY", 6).
emissionMap("[80|127]", "(77[1][0]|77ab|77bc)", "gasoline_euro4", "HEAVY", 6).
emissionMap("[80|127]", "(77[1][0]|77ab|77bc|77cd|53cd)", "gasoline_euro4", "HEAVY", 6).
emissionMap("[80|127]", "(77[1][0]|77ab|77bc|77cd)", "gasoline_euro4", "HEAVY", 6).
emissionMap("[80|127]", "(77[1][0]|77ab|77bc|77cd|53cd|53[0])", "gasoline_euro4", "HEAVY", 6).
emissionMap("[80|127]", "(77[1][0]|77ab|77bc|77cd|53cd|53[0]|53[1][0])", "gasoline_euro4", "HEAVY", 6).
emissionMap("[80|127]", "None", "gasoline_euro4", "HEAVY", 6).
emissionMap("[134b|133]", "31", "gasoline_euro4", "HEAVY", 17).
emissionMap("[134b|133]", "None", "gasoline_euro4", "HEAVY", 17).
emissionMap("[136|135]", "[181|18]", "gasoline_euro4", "HEAVY", 100).
emissionMap("[136|135]", "None", "gasoline_euro4", "HEAVY", 97).
emissionMap("[138|137]", "180", "gasoline_euro4", "HEAVY", 21).
emissionMap("[138|137]", "None", "gasoline_euro4", "HEAVY", 22).
emissionMap("[17|71]", "67", "gasoline_euro4", "HEAVY", 35).
emissionMap("[17|71]", "84", "gasoline_euro4", "HEAVY", 10).
emissionMap("[17|71]", "86", "gasoline_euro4", "HEAVY", 14).
emissionMap("[17|71]", "None", "gasoline_euro4", "HEAVY", 13).
emissionMap("[181|18]", "69", "gasoline_euro4", "HEAVY", 6).
emissionMap("[181|18]", "[17|71]", "gasoline_euro4", "HEAVY", 10).
emissionMap("[181|18]", "None", "gasoline_euro4", "HEAVY", 10).
emissionMap("[189[0]|189[1][0]+20000|189[1][1]]", "188", "gasoline_euro4", "HEAVY", 56).
emissionMap("[189[0]|189[1][0]+20000|189[1][1]]", "191", "gasoline_euro4", "HEAVY", 57).
emissionMap("[189[0]|189[1][0]+20000|189[1][1]]", "None", "gasoline_euro4", "HEAVY", 58).
emissionMap("[3|2]", "4", "gasoline_euro4", "HEAVY", 2).
emissionMap("[3|2]", "[202|34]", "gasoline_euro4", "HEAVY", 1).
emissionMap("[3|2]", "None", "gasoline_euro4", "HEAVY", 1).
emissionMap("[200|60]", "None", "gasoline_euro4", "HEAVY", 0).
emissionMap("[87[0]|20001+87[1][0]|87[1][1]]", "97", "gasoline_euro4", "HEAVY", 0).
emissionMap("[87[0]|20001+87[1][0]|87[1][1]]", "m90", "gasoline_euro4", "HEAVY", 0).
emissionMap("[87[0]|20001+87[1][0]|87[1][1]]", "None", "gasoline_euro4", "HEAVY", 0).
emissionMap("[89[0]|20002+89[1][0]|89[1][1]]", "91", "gasoline_euro4", "HEAVY", 3).
emissionMap("[89[0]|20002+89[1][0]|89[1][1]]", "None", "gasoline_euro4", "HEAVY", 3).
emissionMap("[202|34]", "113", "gasoline_euro4", "HEAVY", 19).
emissionMap("[202|34]", "134", "gasoline_euro4", "HEAVY", 56).
emissionMap("[202|34]", "None", "gasoline_euro4", "HEAVY", 19).
emissionMap("[210|43[0]]", "118", "gasoline_euro4", "HEAVY", 65).
emissionMap("[210|43[0]]", "43[1]", "gasoline_euro4", "HEAVY", 11).
emissionMap("[210|43[0]]", "None", "gasoline_euro4", "HEAVY", 23).
emissionMap("[211|45]", "206", "gasoline_euro4", "HEAVY", 3).
emissionMap("[211|45]", "44", "gasoline_euro4", "HEAVY", 3).
emissionMap("[211|45]", "None", "gasoline_euro4", "HEAVY", 3).
emissionMap("[22|59]", "(53cd|53[0]|53[1][0]|53[1][1][0]|77[1][0])", "gasoline_euro4", "HEAVY", 45).
emissionMap("[22|59]", "(53cd|53[0]|53[1][0]|53[1][1][0]|77[1][0]|77ab)", "gasoline_euro4", "HEAVY", 14).
emissionMap("[22|59]", "(53cd|53[0]|53[1][0]|53[1][1][0]|77[1][0]|77ab|77bc)", "gasoline_euro4", "HEAVY", 13).
emissionMap("[22|59]", "(53cd)", "gasoline_euro4", "HEAVY", 13).
emissionMap("[22|59]", "(53cd|53[0])", "gasoline_euro4", "HEAVY", 15).
emissionMap("[22|59]", "(53cd|53[0]|53[1][0])", "gasoline_euro4", "HEAVY", 14).
emissionMap("[22|59]", "(53cd|53[0]|53[1][0]|53[1][1][0])", "gasoline_euro4", "HEAVY", 15).
emissionMap("[22|59]", "None", "gasoline_euro4", "HEAVY", 15).
emissionMap("[26|25]", "74", "gasoline_euro4", "HEAVY", 72).
emissionMap("[26|25]", "[68|11]", "gasoline_euro4", "HEAVY", 77).
emissionMap("[26|25]", "[80|127]", "gasoline_euro4", "HEAVY", 79).
emissionMap("[26|25]", "None", "gasoline_euro4", "HEAVY", 73).
emissionMap("[78[0]|56a]", "56b", "gasoline_euro4", "HEAVY", 14).
emissionMap("[78[0]|56a]", "m1", "gasoline_euro4", "HEAVY", 13).
emissionMap("[78[0]|56a]", "None", "gasoline_euro4", "HEAVY", 14).
emissionMap("(77ab)", "(77bc|77cd|53cd|53[0]|53[1][0]|53[1][1][0]|77[1][0])", "gasoline_euro4", "HEAVY", 0).
emissionMap("(77ab)", "(77bc)", "gasoline_euro4", "HEAVY", 0).
emissionMap("(77ab)", "(77bc|77cd|53cd)", "gasoline_euro4", "HEAVY", 0).
emissionMap("(77ab)", "(77bc|77cd)", "gasoline_euro4", "HEAVY", 0).
emissionMap("(77ab)", "(77bc|77cd|53cd|53[0])", "gasoline_euro4", "HEAVY", 0).
emissionMap("(77ab)", "(77bc|77cd|53cd|53[0]|53[1][0])", "gasoline_euro4", "HEAVY", 0).
emissionMap("(77ab)", "(77bc|77cd|53cd|53[0]|53[1][0]|53[1][1][0])", "gasoline_euro4", "HEAVY", 0).
emissionMap("(77ab)", "None", "gasoline_euro4", "HEAVY", 0).
emissionMap("(77ab|77bc)", "21a", "gasoline_euro4", "HEAVY", 0).
emissionMap("(77ab|77bc)", "(77cd|53cd|53[0]|53[1][0]|53[1][1][0]|77[1][0])", "gasoline_euro4", "HEAVY", 0).
emissionMap("(77ab|77bc)", "(77cd|53cd)", "gasoline_euro4", "HEAVY", 0).
emissionMap("(77ab|77bc)", "(77cd)", "gasoline_euro4", "HEAVY", 0).
emissionMap("(77ab|77bc)", "(77cd|53cd|53[0])", "gasoline_euro4", "HEAVY", 0).
emissionMap("(77ab|77bc)", "(77cd|53cd|53[0]|53[1][0])", "gasoline_euro4", "HEAVY", 0).
emissionMap("(77ab|77bc)", "(77cd|53cd|53[0]|53[1][0]|53[1][1][0])", "gasoline_euro4", "HEAVY", 0).
emissionMap("(77ab|77bc)", "None", "gasoline_euro4", "HEAVY", 0).
emissionMap("(77ab|77bc|77cd|53cd)", "82", "gasoline_euro4", "HEAVY", 0).
emissionMap("(77ab|77bc|77cd|53cd)", "(53[0]|53[1][0]|53[1][1][0]|77[1][0])", "gasoline_euro4", "HEAVY", 0).
emissionMap("(77ab|77bc|77cd|53cd)", "(53[0])", "gasoline_euro4", "HEAVY", 0).
emissionMap("(77ab|77bc|77cd|53cd)", "(53[0]|53[1][0])", "gasoline_euro4", "HEAVY", 0).
emissionMap("(77ab|77bc|77cd|53cd)", "(53[0]|53[1][0]|53[1][1][0])", "gasoline_euro4", "HEAVY", 0).
emissionMap("(77ab|77bc|77cd|53cd)", "None", "gasoline_euro4", "HEAVY", 0).
emissionMap("(77ab|77bc|77cd)", "(53cd|53[0]|53[1][0]|53[1][1][0]|77[1][0])", "gasoline_euro4", "HEAVY", 0).
emissionMap("(77ab|77bc|77cd)", "(53cd)", "gasoline_euro4", "HEAVY", 0).
emissionMap("(77ab|77bc|77cd)", "(53cd|53[0])", "gasoline_euro4", "HEAVY", 0).
emissionMap("(77ab|77bc|77cd)", "(53cd|53[0]|53[1][0])", "gasoline_euro4", "HEAVY", 0).
emissionMap("(77ab|77bc|77cd)", "(53cd|53[0]|53[1][0]|53[1][1][0])", "gasoline_euro4", "HEAVY", 0).
emissionMap("(77ab|77bc|77cd)", "None", "gasoline_euro4", "HEAVY", 0).
emissionMap("(77ab|77bc|77cd|53cd|53[0])", "78[1][1]", "gasoline_euro4", "HEAVY", 0).
emissionMap("(77ab|77bc|77cd|53cd|53[0])", "(53[1][0]|53[1][1][0]|77[1][0])", "gasoline_euro4", "HEAVY", 0).
emissionMap("(77ab|77bc|77cd|53cd|53[0])", "(53[1][0])", "gasoline_euro4", "HEAVY", 0).
emissionMap("(77ab|77bc|77cd|53cd|53[0])", "(53[1][0]|53[1][1][0])", "gasoline_euro4", "HEAVY", 0).
emissionMap("(77ab|77bc|77cd|53cd|53[0])", "None", "gasoline_euro4", "HEAVY", 0).
emissionMap("(77ab|77bc|77cd|53cd|53[0]|53[1][0])", "79", "gasoline_euro4", "HEAVY", 0).
emissionMap("(77ab|77bc|77cd|53cd|53[0]|53[1][0])", "(53[1][1][0]|77[1][0])", "gasoline_euro4", "HEAVY", 0).
emissionMap("(77ab|77bc|77cd|53cd|53[0]|53[1][0])", "(53[1][1][0])", "gasoline_euro4", "HEAVY", 0).
emissionMap("(77ab|77bc|77cd|53cd|53[0]|53[1][0])", "None", "gasoline_euro4", "HEAVY", 0).
emissionMap("(77ab|77bc|77cd|53cd|53[0]|53[1][0]|53[1][1][0])", "(77[1][0])", "gasoline_euro4", "HEAVY", 0).
emissionMap("(77ab|77bc|77cd|53cd|53[0]|53[1][0]|53[1][1][0])", "None", "gasoline_euro4", "HEAVY", 0).
emissionMap("(77bc|77cd|53cd|53[0]|53[1][0]|53[1][1][0]|77[1][0])", "77[1][1]", "gasoline_euro4", "HEAVY", 0).
emissionMap("(77bc|77cd|53cd|53[0]|53[1][0]|53[1][1][0]|77[1][0])", "(77ab)", "gasoline_euro4", "HEAVY", 0).
emissionMap("(77bc|77cd|53cd|53[0]|53[1][0]|53[1][1][0]|77[1][0])", "None", "gasoline_euro4", "HEAVY", 0).
emissionMap("(77bc)", "21a", "gasoline_euro4", "HEAVY", 0).
emissionMap("(77bc)", "(77cd|53cd|53[0]|53[1][0]|53[1][1][0]|77[1][0])", "gasoline_euro4", "HEAVY", 0).
emissionMap("(77bc)", "(77cd|53cd|53[0]|53[1][0]|53[1][1][0]|77[1][0]|77ab)", "gasoline_euro4", "HEAVY", 0).
emissionMap("(77bc)", "(77cd|53cd)", "gasoline_euro4", "HEAVY", 0).
emissionMap("(77bc)", "(77cd)", "gasoline_euro4", "HEAVY", 0).
emissionMap("(77bc)", "(77cd|53cd|53[0])", "gasoline_euro4", "HEAVY", 0).
emissionMap("(77bc)", "(77cd|53cd|53[0]|53[1][0])", "gasoline_euro4", "HEAVY", 0).
emissionMap("(77bc)", "(77cd|53cd|53[0]|53[1][0]|53[1][1][0])", "gasoline_euro4", "HEAVY", 0).
emissionMap("(77bc)", "None", "gasoline_euro4", "HEAVY", 0).
emissionMap("(77bc|77cd|53cd)", "82", "gasoline_euro4", "HEAVY", 0).
emissionMap("(77bc|77cd|53cd)", "(53[0]|53[1][0]|53[1][1][0]|77[1][0])", "gasoline_euro4", "HEAVY", 0).
emissionMap("(77bc|77cd|53cd)", "(53[0]|53[1][0]|53[1][1][0]|77[1][0]|77ab)", "gasoline_euro4", "HEAVY", 0).
emissionMap("(77bc|77cd|53cd)", "(53[0])", "gasoline_euro4", "HEAVY", 0).
emissionMap("(77bc|77cd|53cd)", "(53[0]|53[1][0])", "gasoline_euro4", "HEAVY", 0).
emissionMap("(77bc|77cd|53cd)", "(53[0]|53[1][0]|53[1][1][0])", "gasoline_euro4", "HEAVY", 0).
emissionMap("(77bc|77cd|53cd)", "None", "gasoline_euro4", "HEAVY", 0).
emissionMap("(77bc|77cd)", "(53cd|53[0]|53[1][0]|53[1][1][0]|77[1][0])", "gasoline_euro4", "HEAVY", 0).
emissionMap("(77bc|77cd)", "(53cd|53[0]|53[1][0]|53[1][1][0]|77[1][0]|77ab)", "gasoline_euro4", "HEAVY", 0).
emissionMap("(77bc|77cd)", "(53cd)", "gasoline_euro4", "HEAVY", 0).
emissionMap("(77bc|77cd)", "(53cd|53[0])", "gasoline_euro4", "HEAVY", 0).
emissionMap("(77bc|77cd)", "(53cd|53[0]|53[1][0])", "gasoline_euro4", "HEAVY", 0).
emissionMap("(77bc|77cd)", "(53cd|53[0]|53[1][0]|53[1][1][0])", "gasoline_euro4", "HEAVY", 0).
emissionMap("(77bc|77cd)", "None", "gasoline_euro4", "HEAVY", 0).
emissionMap("(77bc|77cd|53cd|53[0])", "78[1][1]", "gasoline_euro4", "HEAVY", 0).
emissionMap("(77bc|77cd|53cd|53[0])", "(53[1][0]|53[1][1][0]|77[1][0])", "gasoline_euro4", "HEAVY", 0).
emissionMap("(77bc|77cd|53cd|53[0])", "(53[1][0]|53[1][1][0]|77[1][0]|77ab)", "gasoline_euro4", "HEAVY", 0).
emissionMap("(77bc|77cd|53cd|53[0])", "(53[1][0])", "gasoline_euro4", "HEAVY", 0).
emissionMap("(77bc|77cd|53cd|53[0])", "(53[1][0]|53[1][1][0])", "gasoline_euro4", "HEAVY", 0).
emissionMap("(77bc|77cd|53cd|53[0])", "None", "gasoline_euro4", "HEAVY", 0).
emissionMap("(77bc|77cd|53cd|53[0]|53[1][0])", "79", "gasoline_euro4", "HEAVY", 0).
emissionMap("(77bc|77cd|53cd|53[0]|53[1][0])", "(53[1][1][0]|77[1][0])", "gasoline_euro4", "HEAVY", 0).
emissionMap("(77bc|77cd|53cd|53[0]|53[1][0])", "(53[1][1][0]|77[1][0]|77ab)", "gasoline_euro4", "HEAVY", 0).
emissionMap("(77bc|77cd|53cd|53[0]|53[1][0])", "(53[1][1][0])", "gasoline_euro4", "HEAVY", 0).
emissionMap("(77bc|77cd|53cd|53[0]|53[1][0])", "None", "gasoline_euro4", "HEAVY", 0).
emissionMap("(77bc|77cd|53cd|53[0]|53[1][0]|53[1][1][0])", "(77[1][0])", "gasoline_euro4", "HEAVY", 0).
emissionMap("(77bc|77cd|53cd|53[0]|53[1][0]|53[1][1][0])", "(77[1][0]|77ab)", "gasoline_euro4", "HEAVY", 0).
emissionMap("(77bc|77cd|53cd|53[0]|53[1][0]|53[1][1][0])", "None", "gasoline_euro4", "HEAVY", 0).
emissionMap("(77cd|53cd|53[0]|53[1][0]|53[1][1][0]|77[1][0])", "77[1][1]", "gasoline_euro4", "HEAVY", 1).
emissionMap("(77cd|53cd|53[0]|53[1][0]|53[1][1][0]|77[1][0])", "(77ab)", "gasoline_euro4", "HEAVY", 1).
emissionMap("(77cd|53cd|53[0]|53[1][0]|53[1][1][0]|77[1][0])", "(77ab|77bc)", "gasoline_euro4", "HEAVY", 1).
emissionMap("(77cd|53cd|53[0]|53[1][0]|53[1][1][0]|77[1][0])", "None", "gasoline_euro4", "HEAVY", 1).
emissionMap("(77cd|53cd|53[0]|53[1][0]|53[1][1][0]|77[1][0]|77ab)", "(77bc)", "gasoline_euro4", "HEAVY", 1).
emissionMap("(77cd|53cd|53[0]|53[1][0]|53[1][1][0]|77[1][0]|77ab)", "None", "gasoline_euro4", "HEAVY", 1).
emissionMap("(77cd|53cd)", "82", "gasoline_euro4", "HEAVY", 0).
emissionMap("(77cd|53cd)", "(53[0]|53[1][0]|53[1][1][0]|77[1][0])", "gasoline_euro4", "HEAVY", 0).
emissionMap("(77cd|53cd)", "(53[0]|53[1][0]|53[1][1][0]|77[1][0]|77ab)", "gasoline_euro4", "HEAVY", 0).
emissionMap("(77cd|53cd)", "(53[0]|53[1][0]|53[1][1][0]|77[1][0]|77ab|77bc)", "gasoline_euro4", "HEAVY", 0).
emissionMap("(77cd|53cd)", "(53[0])", "gasoline_euro4", "HEAVY", 0).
emissionMap("(77cd|53cd)", "(53[0]|53[1][0])", "gasoline_euro4", "HEAVY", 0).
emissionMap("(77cd|53cd)", "(53[0]|53[1][0]|53[1][1][0])", "gasoline_euro4", "HEAVY", 0).
emissionMap("(77cd|53cd)", "None", "gasoline_euro4", "HEAVY", 0).
emissionMap("(77cd)", "(53cd|53[0]|53[1][0]|53[1][1][0]|77[1][0])", "gasoline_euro4", "HEAVY", 0).
emissionMap("(77cd)", "(53cd|53[0]|53[1][0]|53[1][1][0]|77[1][0]|77ab)", "gasoline_euro4", "HEAVY", 0).
emissionMap("(77cd)", "(53cd|53[0]|53[1][0]|53[1][1][0]|77[1][0]|77ab|77bc)", "gasoline_euro4", "HEAVY", 0).
emissionMap("(77cd)", "(53cd)", "gasoline_euro4", "HEAVY", 0).
emissionMap("(77cd)", "(53cd|53[0])", "gasoline_euro4", "HEAVY", 0).
emissionMap("(77cd)", "(53cd|53[0]|53[1][0])", "gasoline_euro4", "HEAVY", 0).
emissionMap("(77cd)", "(53cd|53[0]|53[1][0]|53[1][1][0])", "gasoline_euro4", "HEAVY", 0).
emissionMap("(77cd)", "None", "gasoline_euro4", "HEAVY", 0).
emissionMap("(77cd|53cd|53[0])", "78[1][1]", "gasoline_euro4", "HEAVY", 0).
emissionMap("(77cd|53cd|53[0])", "(53[1][0]|53[1][1][0]|77[1][0])", "gasoline_euro4", "HEAVY", 0).
emissionMap("(77cd|53cd|53[0])", "(53[1][0]|53[1][1][0]|77[1][0]|77ab)", "gasoline_euro4", "HEAVY", 0).
emissionMap("(77cd|53cd|53[0])", "(53[1][0]|53[1][1][0]|77[1][0]|77ab|77bc)", "gasoline_euro4", "HEAVY", 0).
emissionMap("(77cd|53cd|53[0])", "(53[1][0])", "gasoline_euro4", "HEAVY", 0).
emissionMap("(77cd|53cd|53[0])", "(53[1][0]|53[1][1][0])", "gasoline_euro4", "HEAVY", 0).
emissionMap("(77cd|53cd|53[0])", "None", "gasoline_euro4", "HEAVY", 0).
emissionMap("(77cd|53cd|53[0]|53[1][0])", "79", "gasoline_euro4", "HEAVY", 0).
emissionMap("(77cd|53cd|53[0]|53[1][0])", "(53[1][1][0]|77[1][0])", "gasoline_euro4", "HEAVY", 0).
emissionMap("(77cd|53cd|53[0]|53[1][0])", "(53[1][1][0]|77[1][0]|77ab)", "gasoline_euro4", "HEAVY", 0).
emissionMap("(77cd|53cd|53[0]|53[1][0])", "(53[1][1][0]|77[1][0]|77ab|77bc)", "gasoline_euro4", "HEAVY", 0).
emissionMap("(77cd|53cd|53[0]|53[1][0])", "(53[1][1][0])", "gasoline_euro4", "HEAVY", 0).
emissionMap("(77cd|53cd|53[0]|53[1][0])", "None", "gasoline_euro4", "HEAVY", 0).
emissionMap("(77cd|53cd|53[0]|53[1][0]|53[1][1][0])", "(77[1][0])", "gasoline_euro4", "HEAVY", 0).
emissionMap("(77cd|53cd|53[0]|53[1][0]|53[1][1][0])", "(77[1][0]|77ab)", "gasoline_euro4", "HEAVY", 0).
emissionMap("(77cd|53cd|53[0]|53[1][0]|53[1][1][0])", "(77[1][0]|77ab|77bc)", "gasoline_euro4", "HEAVY", 0).
emissionMap("(77cd|53cd|53[0]|53[1][0]|53[1][1][0])", "None", "gasoline_euro4", "HEAVY", 0).
emissionMap("(53[0]|53[1][0]|53[1][1][0]|77[1][0])", "77[1][1]", "gasoline_euro4", "HEAVY", 0).
emissionMap("(53[0]|53[1][0]|53[1][1][0]|77[1][0])", "(77ab)", "gasoline_euro4", "HEAVY", 0).
emissionMap("(53[0]|53[1][0]|53[1][1][0]|77[1][0])", "(77ab|77bc)", "gasoline_euro4", "HEAVY", 1).
emissionMap("(53[0]|53[1][0]|53[1][1][0]|77[1][0])", "(77ab|77bc|77cd|53cd)", "gasoline_euro4", "HEAVY", 0).
emissionMap("(53[0]|53[1][0]|53[1][1][0]|77[1][0])", "(77ab|77bc|77cd)", "gasoline_euro4", "HEAVY", 1).
emissionMap("(53[0]|53[1][0]|53[1][1][0]|77[1][0])", "None", "gasoline_euro4", "HEAVY", 0).
emissionMap("(53[0]|53[1][0]|53[1][1][0]|77[1][0]|77ab)", "(77bc)", "gasoline_euro4", "HEAVY", 0).
emissionMap("(53[0]|53[1][0]|53[1][1][0]|77[1][0]|77ab)", "(77bc|77cd|53cd)", "gasoline_euro4", "HEAVY", 1).
emissionMap("(53[0]|53[1][0]|53[1][1][0]|77[1][0]|77ab)", "(77bc|77cd)", "gasoline_euro4", "HEAVY", 1).
emissionMap("(53[0]|53[1][0]|53[1][1][0]|77[1][0]|77ab)", "None", "gasoline_euro4", "HEAVY", 0).
emissionMap("(53[0]|53[1][0]|53[1][1][0]|77[1][0]|77ab|77bc)", "21a", "gasoline_euro4", "HEAVY", 0).
emissionMap("(53[0]|53[1][0]|53[1][1][0]|77[1][0]|77ab|77bc)", "(77cd|53cd)", "gasoline_euro4", "HEAVY", 0).
emissionMap("(53[0]|53[1][0]|53[1][1][0]|77[1][0]|77ab|77bc)", "(77cd)", "gasoline_euro4", "HEAVY", 1).
emissionMap("(53[0]|53[1][0]|53[1][1][0]|77[1][0]|77ab|77bc)", "None", "gasoline_euro4", "HEAVY", 0).
emissionMap("(53[0]|53[1][0]|53[1][1][0]|77[1][0]|77ab|77bc|77cd)", "(53cd)", "gasoline_euro4", "HEAVY", 0).
emissionMap("(53[0]|53[1][0]|53[1][1][0]|77[1][0]|77ab|77bc|77cd)", "None", "gasoline_euro4", "HEAVY", 0).
emissionMap("(53[0])", "78[1][1]", "gasoline_euro4", "HEAVY", 0).
emissionMap("(53[0])", "(53[1][0]|53[1][1][0]|77[1][0])", "gasoline_euro4", "HEAVY", 0).
emissionMap("(53[0])", "(53[1][0]|53[1][1][0]|77[1][0]|77ab)", "gasoline_euro4", "HEAVY", 0).
emissionMap("(53[0])", "(53[1][0]|53[1][1][0]|77[1][0]|77ab|77bc)", "gasoline_euro4", "HEAVY", 0).
emissionMap("(53[0])", "(53[1][0]|53[1][1][0]|77[1][0]|77ab|77bc|77cd|53cd)", "gasoline_euro4", "HEAVY", 0).
emissionMap("(53[0])", "(53[1][0]|53[1][1][0]|77[1][0]|77ab|77bc|77cd)", "gasoline_euro4", "HEAVY", 0).
emissionMap("(53[0])", "(53[1][0])", "gasoline_euro4", "HEAVY", 0).
emissionMap("(53[0])", "(53[1][0]|53[1][1][0])", "gasoline_euro4", "HEAVY", 0).
emissionMap("(53[0])", "None", "gasoline_euro4", "HEAVY", 0).
emissionMap("(53[0]|53[1][0])", "79", "gasoline_euro4", "HEAVY", 0).
emissionMap("(53[0]|53[1][0])", "(53[1][1][0]|77[1][0])", "gasoline_euro4", "HEAVY", 0).
emissionMap("(53[0]|53[1][0])", "(53[1][1][0]|77[1][0]|77ab)", "gasoline_euro4", "HEAVY", 0).
emissionMap("(53[0]|53[1][0])", "(53[1][1][0]|77[1][0]|77ab|77bc)", "gasoline_euro4", "HEAVY", 0).
emissionMap("(53[0]|53[1][0])", "(53[1][1][0]|77[1][0]|77ab|77bc|77cd|53cd)", "gasoline_euro4", "HEAVY", 0).
emissionMap("(53[0]|53[1][0])", "(53[1][1][0]|77[1][0]|77ab|77bc|77cd)", "gasoline_euro4", "HEAVY", 0).
emissionMap("(53[0]|53[1][0])", "(53[1][1][0])", "gasoline_euro4", "HEAVY", 0).
emissionMap("(53[0]|53[1][0])", "None", "gasoline_euro4", "HEAVY", 0).
emissionMap("(53[0]|53[1][0]|53[1][1][0])", "(77[1][0])", "gasoline_euro4", "HEAVY", 0).
emissionMap("(53[0]|53[1][0]|53[1][1][0])", "(77[1][0]|77ab)", "gasoline_euro4", "HEAVY", 0).
emissionMap("(53[0]|53[1][0]|53[1][1][0])", "(77[1][0]|77ab|77bc)", "gasoline_euro4", "HEAVY", 0).
emissionMap("(53[0]|53[1][0]|53[1][1][0])", "(77[1][0]|77ab|77bc|77cd|53cd)", "gasoline_euro4", "HEAVY", 0).
emissionMap("(53[0]|53[1][0]|53[1][1][0])", "(77[1][0]|77ab|77bc|77cd)", "gasoline_euro4", "HEAVY", 0).
emissionMap("(53[0]|53[1][0]|53[1][1][0])", "None", "gasoline_euro4", "HEAVY", 0).
emissionMap("(53cd|53[0]|53[1][0]|53[1][1][0]|77[1][0])", "77[1][1]", "gasoline_euro4", "HEAVY", 1).
emissionMap("(53cd|53[0]|53[1][0]|53[1][1][0]|77[1][0])", "(77ab)", "gasoline_euro4", "HEAVY", 0).
emissionMap("(53cd|53[0]|53[1][0]|53[1][1][0]|77[1][0])", "(77ab|77bc)", "gasoline_euro4", "HEAVY", 1).
emissionMap("(53cd|53[0]|53[1][0]|53[1][1][0]|77[1][0])", "(77ab|77bc|77cd)", "gasoline_euro4", "HEAVY", 1).
emissionMap("(53cd|53[0]|53[1][0]|53[1][1][0]|77[1][0])", "None", "gasoline_euro4", "HEAVY", 1).
emissionMap("(53cd|53[0]|53[1][0]|53[1][1][0]|77[1][0]|77ab)", "(77bc)", "gasoline_euro4", "HEAVY", 1).
emissionMap("(53cd|53[0]|53[1][0]|53[1][1][0]|77[1][0]|77ab)", "(77bc|77cd)", "gasoline_euro4", "HEAVY", 1).
emissionMap("(53cd|53[0]|53[1][0]|53[1][1][0]|77[1][0]|77ab)", "None", "gasoline_euro4", "HEAVY", 1).
emissionMap("(53cd|53[0]|53[1][0]|53[1][1][0]|77[1][0]|77ab|77bc)", "21a", "gasoline_euro4", "HEAVY", 0).
emissionMap("(53cd|53[0]|53[1][0]|53[1][1][0]|77[1][0]|77ab|77bc)", "(77cd)", "gasoline_euro4", "HEAVY", 0).
emissionMap("(53cd|53[0]|53[1][0]|53[1][1][0]|77[1][0]|77ab|77bc)", "None", "gasoline_euro4", "HEAVY", 0).
emissionMap("(53cd)", "82", "gasoline_euro4", "HEAVY", 0).
emissionMap("(53cd)", "(53[0]|53[1][0]|53[1][1][0]|77[1][0])", "gasoline_euro4", "HEAVY", 0).
emissionMap("(53cd)", "(53[0]|53[1][0]|53[1][1][0]|77[1][0]|77ab)", "gasoline_euro4", "HEAVY", 0).
emissionMap("(53cd)", "(53[0]|53[1][0]|53[1][1][0]|77[1][0]|77ab|77bc)", "gasoline_euro4", "HEAVY", 0).
emissionMap("(53cd)", "(53[0]|53[1][0]|53[1][1][0]|77[1][0]|77ab|77bc|77cd)", "gasoline_euro4", "HEAVY", 0).
emissionMap("(53cd)", "(53[0])", "gasoline_euro4", "HEAVY", 0).
emissionMap("(53cd)", "(53[0]|53[1][0])", "gasoline_euro4", "HEAVY", 0).
emissionMap("(53cd)", "(53[0]|53[1][0]|53[1][1][0])", "gasoline_euro4", "HEAVY", 0).
emissionMap("(53cd)", "None", "gasoline_euro4", "HEAVY", 0).
emissionMap("(53cd|53[0])", "78[1][1]", "gasoline_euro4", "HEAVY", 0).
emissionMap("(53cd|53[0])", "(53[1][0]|53[1][1][0]|77[1][0])", "gasoline_euro4", "HEAVY", 0).
emissionMap("(53cd|53[0])", "(53[1][0]|53[1][1][0]|77[1][0]|77ab)", "gasoline_euro4", "HEAVY", 0).
emissionMap("(53cd|53[0])", "(53[1][0]|53[1][1][0]|77[1][0]|77ab|77bc)", "gasoline_euro4", "HEAVY", 0).
emissionMap("(53cd|53[0])", "(53[1][0]|53[1][1][0]|77[1][0]|77ab|77bc|77cd)", "gasoline_euro4", "HEAVY", 0).
emissionMap("(53cd|53[0])", "(53[1][0])", "gasoline_euro4", "HEAVY", 0).
emissionMap("(53cd|53[0])", "(53[1][0]|53[1][1][0])", "gasoline_euro4", "HEAVY", 0).
emissionMap("(53cd|53[0])", "None", "gasoline_euro4", "HEAVY", 0).
emissionMap("(53cd|53[0]|53[1][0])", "79", "gasoline_euro4", "HEAVY", 0).
emissionMap("(53cd|53[0]|53[1][0])", "(53[1][1][0]|77[1][0])", "gasoline_euro4", "HEAVY", 0).
emissionMap("(53cd|53[0]|53[1][0])", "(53[1][1][0]|77[1][0]|77ab)", "gasoline_euro4", "HEAVY", 0).
emissionMap("(53cd|53[0]|53[1][0])", "(53[1][1][0]|77[1][0]|77ab|77bc)", "gasoline_euro4", "HEAVY", 0).
emissionMap("(53cd|53[0]|53[1][0])", "(53[1][1][0]|77[1][0]|77ab|77bc|77cd)", "gasoline_euro4", "HEAVY", 0).
emissionMap("(53cd|53[0]|53[1][0])", "(53[1][1][0])", "gasoline_euro4", "HEAVY", 0).
emissionMap("(53cd|53[0]|53[1][0])", "None", "gasoline_euro4", "HEAVY", 0).
emissionMap("(53cd|53[0]|53[1][0]|53[1][1][0])", "(77[1][0])", "gasoline_euro4", "HEAVY", 0).
emissionMap("(53cd|53[0]|53[1][0]|53[1][1][0])", "(77[1][0]|77ab)", "gasoline_euro4", "HEAVY", 0).
emissionMap("(53cd|53[0]|53[1][0]|53[1][1][0])", "(77[1][0]|77ab|77bc)", "gasoline_euro4", "HEAVY", 0).
emissionMap("(53cd|53[0]|53[1][0]|53[1][1][0])", "(77[1][0]|77ab|77bc|77cd)", "gasoline_euro4", "HEAVY", 0).
emissionMap("(53cd|53[0]|53[1][0]|53[1][1][0])", "None", "gasoline_euro4", "HEAVY", 0).
emissionMap("(53[1][0]|53[1][1][0]|77[1][0])", "77[1][1]", "gasoline_euro4", "HEAVY", 0).
emissionMap("(53[1][0]|53[1][1][0]|77[1][0])", "(77ab)", "gasoline_euro4", "HEAVY", 0).
emissionMap("(53[1][0]|53[1][1][0]|77[1][0])", "(77ab|77bc)", "gasoline_euro4", "HEAVY", 0).
emissionMap("(53[1][0]|53[1][1][0]|77[1][0])", "(77ab|77bc|77cd|53cd)", "gasoline_euro4", "HEAVY", 0).
emissionMap("(53[1][0]|53[1][1][0]|77[1][0])", "(77ab|77bc|77cd)", "gasoline_euro4", "HEAVY", 0).
emissionMap("(53[1][0]|53[1][1][0]|77[1][0])", "(77ab|77bc|77cd|53cd|53[0])", "gasoline_euro4", "HEAVY", 0).
emissionMap("(53[1][0]|53[1][1][0]|77[1][0])", "None", "gasoline_euro4", "HEAVY", 0).
emissionMap("(53[1][0]|53[1][1][0]|77[1][0]|77ab)", "(77bc)", "gasoline_euro4", "HEAVY", 0).
emissionMap("(53[1][0]|53[1][1][0]|77[1][0]|77ab)", "(77bc|77cd|53cd)", "gasoline_euro4", "HEAVY", 0).
emissionMap("(53[1][0]|53[1][1][0]|77[1][0]|77ab)", "(77bc|77cd)", "gasoline_euro4", "HEAVY", 0).
emissionMap("(53[1][0]|53[1][1][0]|77[1][0]|77ab)", "(77bc|77cd|53cd|53[0])", "gasoline_euro4", "HEAVY", 0).
emissionMap("(53[1][0]|53[1][1][0]|77[1][0]|77ab)", "None", "gasoline_euro4", "HEAVY", 0).
emissionMap("(53[1][0]|53[1][1][0]|77[1][0]|77ab|77bc)", "21a", "gasoline_euro4", "HEAVY", 0).
emissionMap("(53[1][0]|53[1][1][0]|77[1][0]|77ab|77bc)", "(77cd|53cd)", "gasoline_euro4", "HEAVY", 0).
emissionMap("(53[1][0]|53[1][1][0]|77[1][0]|77ab|77bc)", "(77cd)", "gasoline_euro4", "HEAVY", 0).
emissionMap("(53[1][0]|53[1][1][0]|77[1][0]|77ab|77bc)", "(77cd|53cd|53[0])", "gasoline_euro4", "HEAVY", 0).
emissionMap("(53[1][0]|53[1][1][0]|77[1][0]|77ab|77bc)", "None", "gasoline_euro4", "HEAVY", 0).
emissionMap("(53[1][0]|53[1][1][0]|77[1][0]|77ab|77bc|77cd|53cd)", "82", "gasoline_euro4", "HEAVY", 0).
emissionMap("(53[1][0]|53[1][1][0]|77[1][0]|77ab|77bc|77cd|53cd)", "(53[0])", "gasoline_euro4", "HEAVY", 0).
emissionMap("(53[1][0]|53[1][1][0]|77[1][0]|77ab|77bc|77cd|53cd)", "None", "gasoline_euro4", "HEAVY", 0).
emissionMap("(53[1][0]|53[1][1][0]|77[1][0]|77ab|77bc|77cd)", "(53cd)", "gasoline_euro4", "HEAVY", 0).
emissionMap("(53[1][0]|53[1][1][0]|77[1][0]|77ab|77bc|77cd)", "(53cd|53[0])", "gasoline_euro4", "HEAVY", 0).
emissionMap("(53[1][0]|53[1][1][0]|77[1][0]|77ab|77bc|77cd)", "None", "gasoline_euro4", "HEAVY", 0).
emissionMap("(53[1][0])", "79", "gasoline_euro4", "HEAVY", 0).
emissionMap("(53[1][0])", "(53[1][1][0]|77[1][0])", "gasoline_euro4", "HEAVY", 0).
emissionMap("(53[1][0])", "(53[1][1][0]|77[1][0]|77ab)", "gasoline_euro4", "HEAVY", 0).
emissionMap("(53[1][0])", "(53[1][1][0]|77[1][0]|77ab|77bc)", "gasoline_euro4", "HEAVY", 0).
emissionMap("(53[1][0])", "(53[1][1][0]|77[1][0]|77ab|77bc|77cd|53cd)", "gasoline_euro4", "HEAVY", 0).
emissionMap("(53[1][0])", "(53[1][1][0]|77[1][0]|77ab|77bc|77cd)", "gasoline_euro4", "HEAVY", 0).
emissionMap("(53[1][0])", "(53[1][1][0]|77[1][0]|77ab|77bc|77cd|53cd|53[0])", "gasoline_euro4", "HEAVY", 0).
emissionMap("(53[1][0])", "(53[1][1][0])", "gasoline_euro4", "HEAVY", 0).
emissionMap("(53[1][0])", "None", "gasoline_euro4", "HEAVY", 0).
emissionMap("(53[1][0]|53[1][1][0])", "(77[1][0])", "gasoline_euro4", "HEAVY", 0).
emissionMap("(53[1][0]|53[1][1][0])", "(77[1][0]|77ab)", "gasoline_euro4", "HEAVY", 0).
emissionMap("(53[1][0]|53[1][1][0])", "(77[1][0]|77ab|77bc)", "gasoline_euro4", "HEAVY", 0).
emissionMap("(53[1][0]|53[1][1][0])", "(77[1][0]|77ab|77bc|77cd|53cd)", "gasoline_euro4", "HEAVY", 0).
emissionMap("(53[1][0]|53[1][1][0])", "(77[1][0]|77ab|77bc|77cd)", "gasoline_euro4", "HEAVY", 0).
emissionMap("(53[1][0]|53[1][1][0])", "(77[1][0]|77ab|77bc|77cd|53cd|53[0])", "gasoline_euro4", "HEAVY", 0).
emissionMap("(53[1][0]|53[1][1][0])", "None", "gasoline_euro4", "HEAVY", 0).
emissionMap("(53[1][1][0]|77[1][0])", "77[1][1]", "gasoline_euro4", "HEAVY", 0).
emissionMap("(53[1][1][0]|77[1][0])", "(77ab)", "gasoline_euro4", "HEAVY", 0).
emissionMap("(53[1][1][0]|77[1][0])", "(77ab|77bc)", "gasoline_euro4", "HEAVY", 0).
emissionMap("(53[1][1][0]|77[1][0])", "(77ab|77bc|77cd|53cd)", "gasoline_euro4", "HEAVY", 0).
emissionMap("(53[1][1][0]|77[1][0])", "(77ab|77bc|77cd)", "gasoline_euro4", "HEAVY", 0).
emissionMap("(53[1][1][0]|77[1][0])", "(77ab|77bc|77cd|53cd|53[0])", "gasoline_euro4", "HEAVY", 0).
emissionMap("(53[1][1][0]|77[1][0])", "(77ab|77bc|77cd|53cd|53[0]|53[1][0])", "gasoline_euro4", "HEAVY", 0).
emissionMap("(53[1][1][0]|77[1][0])", "None", "gasoline_euro4", "HEAVY", 0).
emissionMap("(53[1][1][0]|77[1][0]|77ab)", "(77bc)", "gasoline_euro4", "HEAVY", 0).
emissionMap("(53[1][1][0]|77[1][0]|77ab)", "(77bc|77cd|53cd)", "gasoline_euro4", "HEAVY", 0).
emissionMap("(53[1][1][0]|77[1][0]|77ab)", "(77bc|77cd)", "gasoline_euro4", "HEAVY", 0).
emissionMap("(53[1][1][0]|77[1][0]|77ab)", "(77bc|77cd|53cd|53[0])", "gasoline_euro4", "HEAVY", 0).
emissionMap("(53[1][1][0]|77[1][0]|77ab)", "(77bc|77cd|53cd|53[0]|53[1][0])", "gasoline_euro4", "HEAVY", 0).
emissionMap("(53[1][1][0]|77[1][0]|77ab)", "None", "gasoline_euro4", "HEAVY", 0).
emissionMap("(53[1][1][0]|77[1][0]|77ab|77bc)", "21a", "gasoline_euro4", "HEAVY", 0).
emissionMap("(53[1][1][0]|77[1][0]|77ab|77bc)", "(77cd|53cd)", "gasoline_euro4", "HEAVY", 0).
emissionMap("(53[1][1][0]|77[1][0]|77ab|77bc)", "(77cd)", "gasoline_euro4", "HEAVY", 0).
emissionMap("(53[1][1][0]|77[1][0]|77ab|77bc)", "(77cd|53cd|53[0])", "gasoline_euro4", "HEAVY", 0).
emissionMap("(53[1][1][0]|77[1][0]|77ab|77bc)", "(77cd|53cd|53[0]|53[1][0])", "gasoline_euro4", "HEAVY", 0).
emissionMap("(53[1][1][0]|77[1][0]|77ab|77bc)", "None", "gasoline_euro4", "HEAVY", 0).
emissionMap("(53[1][1][0]|77[1][0]|77ab|77bc|77cd|53cd)", "82", "gasoline_euro4", "HEAVY", 0).
emissionMap("(53[1][1][0]|77[1][0]|77ab|77bc|77cd|53cd)", "(53[0])", "gasoline_euro4", "HEAVY", 0).
emissionMap("(53[1][1][0]|77[1][0]|77ab|77bc|77cd|53cd)", "(53[0]|53[1][0])", "gasoline_euro4", "HEAVY", 0).
emissionMap("(53[1][1][0]|77[1][0]|77ab|77bc|77cd|53cd)", "None", "gasoline_euro4", "HEAVY", 0).
emissionMap("(53[1][1][0]|77[1][0]|77ab|77bc|77cd)", "(53cd)", "gasoline_euro4", "HEAVY", 0).
emissionMap("(53[1][1][0]|77[1][0]|77ab|77bc|77cd)", "(53cd|53[0])", "gasoline_euro4", "HEAVY", 0).
emissionMap("(53[1][1][0]|77[1][0]|77ab|77bc|77cd)", "(53cd|53[0]|53[1][0])", "gasoline_euro4", "HEAVY", 0).
emissionMap("(53[1][1][0]|77[1][0]|77ab|77bc|77cd)", "None", "gasoline_euro4", "HEAVY", 0).
emissionMap("(53[1][1][0]|77[1][0]|77ab|77bc|77cd|53cd|53[0])", "78[1][1]", "gasoline_euro4", "HEAVY", 0).
emissionMap("(53[1][1][0]|77[1][0]|77ab|77bc|77cd|53cd|53[0])", "(53[1][0])", "gasoline_euro4", "HEAVY", 0).
emissionMap("(53[1][1][0]|77[1][0]|77ab|77bc|77cd|53cd|53[0])", "None", "gasoline_euro4", "HEAVY", 0).
emissionMap("(53[1][1][0])", "(77[1][0])", "gasoline_euro4", "HEAVY", 0).
emissionMap("(53[1][1][0])", "(77[1][0]|77ab)", "gasoline_euro4", "HEAVY", 0).
emissionMap("(53[1][1][0])", "(77[1][0]|77ab|77bc)", "gasoline_euro4", "HEAVY", 0).
emissionMap("(53[1][1][0])", "(77[1][0]|77ab|77bc|77cd|53cd)", "gasoline_euro4", "HEAVY", 0).
emissionMap("(53[1][1][0])", "(77[1][0]|77ab|77bc|77cd)", "gasoline_euro4", "HEAVY", 0).
emissionMap("(53[1][1][0])", "(77[1][0]|77ab|77bc|77cd|53cd|53[0])", "gasoline_euro4", "HEAVY", 0).
emissionMap("(53[1][1][0])", "(77[1][0]|77ab|77bc|77cd|53cd|53[0]|53[1][0])", "gasoline_euro4", "HEAVY", 0).
emissionMap("(53[1][1][0])", "None", "gasoline_euro4", "HEAVY", 0).
emissionMap("(77[1][0])", "77[1][1]", "gasoline_euro4", "HEAVY", 0).
emissionMap("(77[1][0])", "(77ab)", "gasoline_euro4", "HEAVY", 0).
emissionMap("(77[1][0])", "(77ab|77bc)", "gasoline_euro4", "HEAVY", 0).
emissionMap("(77[1][0])", "(77ab|77bc|77cd|53cd)", "gasoline_euro4", "HEAVY", 0).
emissionMap("(77[1][0])", "(77ab|77bc|77cd)", "gasoline_euro4", "HEAVY", 0).
emissionMap("(77[1][0])", "(77ab|77bc|77cd|53cd|53[0])", "gasoline_euro4", "HEAVY", 0).
emissionMap("(77[1][0])", "(77ab|77bc|77cd|53cd|53[0]|53[1][0])", "gasoline_euro4", "HEAVY", 0).
emissionMap("(77[1][0])", "(77ab|77bc|77cd|53cd|53[0]|53[1][0]|53[1][1][0])", "gasoline_euro4", "HEAVY", 0).
emissionMap("(77[1][0])", "None", "gasoline_euro4", "HEAVY", 0).
emissionMap("(77[1][0]|77ab)", "(77bc)", "gasoline_euro4", "HEAVY", 0).
emissionMap("(77[1][0]|77ab)", "(77bc|77cd|53cd)", "gasoline_euro4", "HEAVY", 0).
emissionMap("(77[1][0]|77ab)", "(77bc|77cd)", "gasoline_euro4", "HEAVY", 0).
emissionMap("(77[1][0]|77ab)", "(77bc|77cd|53cd|53[0])", "gasoline_euro4", "HEAVY", 0).
emissionMap("(77[1][0]|77ab)", "(77bc|77cd|53cd|53[0]|53[1][0])", "gasoline_euro4", "HEAVY", 0).
emissionMap("(77[1][0]|77ab)", "(77bc|77cd|53cd|53[0]|53[1][0]|53[1][1][0])", "gasoline_euro4", "HEAVY", 0).
emissionMap("(77[1][0]|77ab)", "None", "gasoline_euro4", "HEAVY", 0).
emissionMap("(77[1][0]|77ab|77bc)", "21a", "gasoline_euro4", "HEAVY", 0).
emissionMap("(77[1][0]|77ab|77bc)", "(77cd|53cd)", "gasoline_euro4", "HEAVY", 0).
emissionMap("(77[1][0]|77ab|77bc)", "(77cd)", "gasoline_euro4", "HEAVY", 0).
emissionMap("(77[1][0]|77ab|77bc)", "(77cd|53cd|53[0])", "gasoline_euro4", "HEAVY", 0).
emissionMap("(77[1][0]|77ab|77bc)", "(77cd|53cd|53[0]|53[1][0])", "gasoline_euro4", "HEAVY", 0).
emissionMap("(77[1][0]|77ab|77bc)", "(77cd|53cd|53[0]|53[1][0]|53[1][1][0])", "gasoline_euro4", "HEAVY", 0).
emissionMap("(77[1][0]|77ab|77bc)", "None", "gasoline_euro4", "HEAVY", 0).
emissionMap("(77[1][0]|77ab|77bc|77cd|53cd)", "82", "gasoline_euro4", "HEAVY", 1).
emissionMap("(77[1][0]|77ab|77bc|77cd|53cd)", "(53[0])", "gasoline_euro4", "HEAVY", 1).
emissionMap("(77[1][0]|77ab|77bc|77cd|53cd)", "(53[0]|53[1][0])", "gasoline_euro4", "HEAVY", 0).
emissionMap("(77[1][0]|77ab|77bc|77cd|53cd)", "(53[0]|53[1][0]|53[1][1][0])", "gasoline_euro4", "HEAVY", 1).
emissionMap("(77[1][0]|77ab|77bc|77cd|53cd)", "None", "gasoline_euro4", "HEAVY", 0).
emissionMap("(77[1][0]|77ab|77bc|77cd)", "(53cd)", "gasoline_euro4", "HEAVY", 0).
emissionMap("(77[1][0]|77ab|77bc|77cd)", "(53cd|53[0])", "gasoline_euro4", "HEAVY", 0).
emissionMap("(77[1][0]|77ab|77bc|77cd)", "(53cd|53[0]|53[1][0])", "gasoline_euro4", "HEAVY", 0).
emissionMap("(77[1][0]|77ab|77bc|77cd)", "(53cd|53[0]|53[1][0]|53[1][1][0])", "gasoline_euro4", "HEAVY", 0).
emissionMap("(77[1][0]|77ab|77bc|77cd)", "None", "gasoline_euro4", "HEAVY", 0).
emissionMap("(77[1][0]|77ab|77bc|77cd|53cd|53[0])", "78[1][1]", "gasoline_euro4", "HEAVY", 1).
emissionMap("(77[1][0]|77ab|77bc|77cd|53cd|53[0])", "(53[1][0])", "gasoline_euro4", "HEAVY", 1).
emissionMap("(77[1][0]|77ab|77bc|77cd|53cd|53[0])", "(53[1][0]|53[1][1][0])", "gasoline_euro4", "HEAVY", 1).
emissionMap("(77[1][0]|77ab|77bc|77cd|53cd|53[0])", "None", "gasoline_euro4", "HEAVY", 0).
emissionMap("(77[1][0]|77ab|77bc|77cd|53cd|53[0]|53[1][0])", "79", "gasoline_euro4", "HEAVY", 0).
emissionMap("(77[1][0]|77ab|77bc|77cd|53cd|53[0]|53[1][0])", "(53[1][1][0])", "gasoline_euro4", "HEAVY", 0).
emissionMap("(77[1][0]|77ab|77bc|77cd|53cd|53[0]|53[1][0])", "None", "gasoline_euro4", "HEAVY", 0).
route("R1").
streetOnRoute("131", "R1", 0, 0).
streetOnRoute("65", "R1", 30, 75).
link("131", "65").
streetOnRoute("57[0]", "R1", 40, 120).
link("65", "57[0]").
streetOnRoute("57[1]", "R1", 55, 205).
link("57[0]", "57[1]").
streetOnRoute("62", "R1", 60, 220).
link("57[1]", "62").
streetOnRoute("159", "R1", 80, 310).
link("62", "159").
streetOnRoute("42", "R1", 100, 415).
link("159", "42").
streetOnRoute("39", "R1", 105, 435).
link("42", "39").
streetOnRoute("35", "R1", 110, 455).
link("39", "35").
streetOnRoute("38", "R1", 120, 510).
link("35", "38").
streetOnRoute("15", "R1", 135, 570).
link("38", "15").
streetOnRoute("14", "R1", 175, 645).
link("15", "14").
route("R2").
streetOnRoute("131", "R2", 0, 0).
streetOnRoute("65", "R2", 30, 75).
link("131", "65").
streetOnRoute("57[0]", "R2", 40, 120).
link("65", "57[0]").
streetOnRoute("57[1]", "R2", 55, 205).
link("57[0]", "57[1]").
streetOnRoute("62", "R2", 60, 220).
link("57[1]", "62").
streetOnRoute("159", "R2", 80, 310).
link("62", "159").
streetOnRoute("42", "R2", 100, 415).
link("159", "42").
streetOnRoute("39", "R2", 105, 435).
link("42", "39").
streetOnRoute("35", "R2", 110, 455).
link("39", "35").
streetOnRoute("38", "R2", 120, 510).
link("35", "38").
streetOnRoute("33", "R2", 135, 570).
link("38", "33").
streetOnRoute("10", "R2", 145, 580).
link("33", "10").
route("R3").
streetOnRoute("131", "R3", 0, 0).
streetOnRoute("65", "R3", 30, 75).
link("131", "65").
streetOnRoute("57[0]", "R3", 40, 120).
link("65", "57[0]").
streetOnRoute("57[1]", "R3", 55, 205).
link("57[0]", "57[1]").
streetOnRoute("62", "R3", 60, 220).
link("57[1]", "62").
streetOnRoute("159", "R3", 80, 310).
link("62", "159").
streetOnRoute("42", "R3", 100, 415).
link("159", "42").
streetOnRoute("39", "R3", 105, 435).
link("42", "39").
streetOnRoute("35", "R3", 110, 455).
link("39", "35").
streetOnRoute("38", "R3", 120, 510).
link("35", "38").
streetOnRoute("50", "R3", 135, 570).
link("38", "50").
streetOnRoute("19", "R3", 145, 600).
link("50", "19").
streetOnRoute("103", "R3", 155, 635).
link("19", "103").
streetOnRoute("14", "R3", 200, 680).
link("103", "14").
route("R4").
streetOnRoute("224[1]", "R4", 0, 0).
streetOnRoute("[181|18]", "R4", 15, 90).
link("224[1]", "[181|18]").
streetOnRoute("[17|71]", "R4", 55, 165).
link("[181|18]", "[17|71]").
streetOnRoute("67", "R4", 105, 220).
link("[17|71]", "67").
streetOnRoute("[80|127]", "R4", 115, 235).
link("67", "[80|127]").
streetOnRoute("(77[1][0])", "R4", 130, 270).
link("[80|127]", "(77[1][0])").
streetOnRoute("77[1][1]", "R4", 135, 290).
link("(77[1][0])", "77[1][1]").
route("R5").
streetOnRoute("120", "R5", 0, 0).
streetOnRoute("65", "R5", 15, 60).
link("120", "65").
streetOnRoute("[200|60]", "R5", 25, 105).
link("65", "[200|60]").
route("R6").
streetOnRoute("[17|71]", "R6", 0, 0).
streetOnRoute("67", "R6", 50, 55).
link("[17|71]", "67").
streetOnRoute("[80|127]", "R6", 60, 70).
link("67", "[80|127]").
streetOnRoute("(77[1][0])", "R6", 75, 105).
link("[80|127]", "(77[1][0])").
streetOnRoute("77[1][1]", "R6", 80, 125).
link("(77[1][0])", "77[1][1]").
route("R7").
streetOnRoute("85", "R7", 0, 0).
streetOnRoute("72[0]", "R7", 60, 60).
link("85", "72[0]").
streetOnRoute("72[1]", "R7", 105, 545).
link("72[0]", "72[1]").
streetOnRoute("69", "R7", 140, 585).
link("72[1]", "69").
streetOnRoute("161", "R7", 185, 680).
link("69", "161").
streetOnRoute("194", "R7", 205, 700).
link("161", "194").
streetOnRoute("91", "R7", 220, 715).
link("194", "91").
streetOnRoute("186", "R7", 225, 720).
link("91", "186").
streetOnRoute("[109[0]|109[1][0]+20003|109[1][1]]", "R7", 230, 725).
link("186", "[109[0]|109[1][0]+20003|109[1][1]]").
streetOnRoute("[116|46]", "R7", 240, 735).
link("[109[0]|109[1][0]+20003|109[1][1]]", "[116|46]").
streetOnRoute("201", "R7", 285, 780).
link("[116|46]", "201").
streetOnRoute("201c", "R7", 335, 830).
link("201", "201c").
streetOnRoute("204a[0]", "R7", 370, 865).
link("201c", "204a[0]").
streetOnRoute("124", "R7", 420, 945).
link("204a[0]", "124").
route("R8").
streetOnRoute("[89[0]|20002+89[1][0]|89[1][1]]", "R8", 0, 0).
streetOnRoute("91", "R8", 15, 135).
link("[89[0]|20002+89[1][0]|89[1][1]]", "91").
streetOnRoute("186", "R8", 20, 155).
link("91", "186").
streetOnRoute("[109[0]|109[1][0]+20003|109[1][1]]", "R8", 25, 185).
link("186", "[109[0]|109[1][0]+20003|109[1][1]]").
streetOnRoute("120", "R8", 35, 220).
link("[109[0]|109[1][0]+20003|109[1][1]]", "120").
streetOnRoute("65", "R8", 50, 240).
link("120", "65").
streetOnRoute("[200|60]", "R8", 60, 285).
link("65", "[200|60]").
route("R9").
streetOnRoute("224[1]", "R9", 0, 0).
streetOnRoute("[181|18]", "R9", 15, 90).
link("224[1]", "[181|18]").
streetOnRoute("[17|71]", "R9", 55, 165).
link("[181|18]", "[17|71]").
streetOnRoute("86", "R9", 105, 220).
link("[17|71]", "86").
route("R10").
streetOnRoute("224[0]", "R10", 0, 0).
streetOnRoute("224[1]", "R10", 25, 145).
link("224[0]", "224[1]").
streetOnRoute("[181|18]", "R10", 40, 205).
link("224[1]", "[181|18]").
streetOnRoute("[17|71]", "R10", 80, 280).
link("[181|18]", "[17|71]").
streetOnRoute("86", "R10", 130, 335).
link("[17|71]", "86").
route("R11").
streetOnRoute("85", "R11", 0, 0).
streetOnRoute("72[0]", "R11", 60, 60).
link("85", "72[0]").
streetOnRoute("72[1]", "R11", 105, 545).
link("72[0]", "72[1]").
streetOnRoute("69", "R11", 140, 585).
link("72[1]", "69").
streetOnRoute("161", "R11", 185, 680).
link("69", "161").
streetOnRoute("122", "R11", 205, 700).
link("161", "122").
streetOnRoute("1b", "R11", 225, 1065).
link("122", "1b").
streetOnRoute("1", "R11", 260, 1905).
link("1b", "1").
streetOnRoute("204a[0]", "R11", 295, 1940).
link("1", "204a[0]").
streetOnRoute("204b[0]", "R11", 345, 2060).
link("204a[0]", "204b[0]").
streetOnRoute("204[1][0]", "R11", 350, 2065).
link("204b[0]", "204[1][0]").
streetOnRoute("204[1][1]", "R11", 385, 2100).
link("204[1][0]", "204[1][1]").
route("R12").
streetOnRoute("122", "R12", 0, 0).
streetOnRoute("1b", "R12", 20, 2295).
link("122", "1b").
streetOnRoute("1", "R12", 55, 3135).
link("1b", "1").
streetOnRoute("204a[0]", "R12", 90, 3170).
link("1", "204a[0]").
streetOnRoute("204b[0]", "R12", 140, 3290).
link("204a[0]", "204b[0]").
streetOnRoute("204[1][0]", "R12", 145, 3295).
link("204b[0]", "204[1][0]").
streetOnRoute("204[1][1]", "R12", 180, 3330).
link("204[1][0]", "204[1][1]").
route("R13").
streetOnRoute("77[1][1]", "R13", 0, 0).
route("R14").
streetOnRoute("57[0]", "R14", 0, 0).
streetOnRoute("57[1]", "R14", 15, 105).
link("57[0]", "57[1]").
streetOnRoute("62", "R14", 20, 120).
link("57[1]", "62").
streetOnRoute("159", "R14", 40, 210).
link("62", "159").
streetOnRoute("42", "R14", 60, 315).
link("159", "42").
streetOnRoute("39", "R14", 65, 335).
link("42", "39").
streetOnRoute("35", "R14", 70, 355).
link("39", "35").
streetOnRoute("38", "R14", 80, 410).
link("35", "38").
streetOnRoute("15", "R14", 95, 470).
link("38", "15").
streetOnRoute("14", "R14", 135, 545).
link("15", "14").
route("R15").
streetOnRoute("65", "R15", 0, 0).
streetOnRoute("57[0]", "R15", 10, 45).
link("65", "57[0]").
streetOnRoute("57[1]", "R15", 25, 130).
link("57[0]", "57[1]").
streetOnRoute("62", "R15", 30, 145).
link("57[1]", "62").
streetOnRoute("159", "R15", 50, 235).
link("62", "159").
streetOnRoute("42", "R15", 70, 340).
link("159", "42").
streetOnRoute("39", "R15", 75, 360).
link("42", "39").
streetOnRoute("35", "R15", 80, 380).
link("39", "35").
streetOnRoute("38", "R15", 90, 435).
link("35", "38").
streetOnRoute("15", "R15", 105, 495).
link("38", "15").
streetOnRoute("14", "R15", 145, 570).
link("15", "14").
route("R16").
streetOnRoute("[17|71]", "R16", 0, 0).
streetOnRoute("67", "R16", 50, 55).
link("[17|71]", "67").
streetOnRoute("[80|127]", "R16", 60, 70).
link("67", "[80|127]").
streetOnRoute("(77[1][0]|77ab|77bc)", "R16", 75, 105).
link("[80|127]", "(77[1][0]|77ab|77bc)").
streetOnRoute("21a", "R16", 80, 110).
link("(77[1][0]|77ab|77bc)", "21a").
streetOnRoute("21b", "R16", 85, 115).
link("21a", "21b").
streetOnRoute("103", "R16", 100, 130).
link("21b", "103").
streetOnRoute("14", "R16", 145, 185).
link("103", "14").
route("R17").
streetOnRoute("122", "R17", 0, 0).
streetOnRoute("1b", "R17", 20, 2295).
link("122", "1b").
streetOnRoute("1", "R17", 55, 3135).
link("1b", "1").
streetOnRoute("204a[0]", "R17", 90, 3170).
link("1", "204a[0]").
streetOnRoute("204b[0]", "R17", 140, 3290).
link("204a[0]", "204b[0]").
streetOnRoute("54", "R17", 145, 3295).
link("204b[0]", "54").
route("R18").
streetOnRoute("[22|59]", "R18", 0, 0).
streetOnRoute("(53cd|53[0]|53[1][0]|53[1][1][0]|77[1][0])", "R18", 15, 20).
link("[22|59]", "(53cd|53[0]|53[1][0]|53[1][1][0]|77[1][0])").
streetOnRoute("77[1][1]", "R18", 20, 25).
link("(53cd|53[0]|53[1][0]|53[1][1][0]|77[1][0])", "77[1][1]").
route("R19").
streetOnRoute("194", "R19", 0, 0).
streetOnRoute("91", "R19", 15, 135).
link("194", "91").
streetOnRoute("186", "R19", 20, 155).
link("91", "186").
streetOnRoute("[109[0]|109[1][0]+20003|109[1][1]]", "R19", 25, 185).
link("186", "[109[0]|109[1][0]+20003|109[1][1]]").
streetOnRoute("[116|46]", "R19", 35, 220).
link("[109[0]|109[1][0]+20003|109[1][1]]", "[116|46]").
streetOnRoute("201", "R19", 80, 315).
link("[116|46]", "201").
streetOnRoute("201c", "R19", 130, 550).
link("201", "201c").
streetOnRoute("204a[0]", "R19", 165, 585).
link("201c", "204a[0]").
streetOnRoute("124", "R19", 215, 705).
link("204a[0]", "124").
route("R20").
streetOnRoute("50", "R20", 0, 0).
streetOnRoute("19", "R20", 10, 45).
link("50", "19").
streetOnRoute("[22|59]", "R20", 20, 80).
link("19", "[22|59]").
streetOnRoute("(53cd|53[0]|53[1][0])", "R20", 35, 115).
link("[22|59]", "(53cd|53[0]|53[1][0])").
streetOnRoute("79", "R20", 40, 135).
link("(53cd|53[0]|53[1][0])", "79").
streetOnRoute("[68|11]", "R20", 55, 155).
link("79", "[68|11]").
streetOnRoute("86", "R20", 95, 200).
link("[68|11]", "86").
route("R21").
streetOnRoute("204a[0]", "R21", 0, 0).
streetOnRoute("204b[0]", "R21", 50, 1685).
link("204a[0]", "204b[0]").
streetOnRoute("204[1][0]", "R21", 55, 1700).
link("204b[0]", "204[1][0]").
streetOnRoute("204[1][1]", "R21", 90, 1735).
link("204[1][0]", "204[1][1]").
route("R22").
streetOnRoute("161", "R22", 0, 0).
streetOnRoute("122", "R22", 20, 120).
link("161", "122").
streetOnRoute("1b", "R22", 40, 2315).
link("122", "1b").
streetOnRoute("1", "R22", 75, 3155).
link("1b", "1").
streetOnRoute("204a[0]", "R22", 110, 3190).
link("1", "204a[0]").
streetOnRoute("204b[0]", "R22", 160, 3310).
link("204a[0]", "204b[0]").
streetOnRoute("54", "R22", 165, 3315).
link("204b[0]", "54").
route("R23").
streetOnRoute("224[0]", "R23", 0, 0).
streetOnRoute("224[1]", "R23", 25, 145).
link("224[0]", "224[1]").
streetOnRoute("[181|18]", "R23", 40, 205).
link("224[1]", "[181|18]").
streetOnRoute("[17|71]", "R23", 80, 280).
link("[181|18]", "[17|71]").
streetOnRoute("67", "R23", 130, 335).
link("[17|71]", "67").
streetOnRoute("[80|127]", "R23", 140, 350).
link("67", "[80|127]").
streetOnRoute("(77[1][0])", "R23", 155, 385).
link("[80|127]", "(77[1][0])").
streetOnRoute("77[1][1]", "R23", 160, 405).
link("(77[1][0])", "77[1][1]").
route("R24").
streetOnRoute("161", "R24", 0, 0).
streetOnRoute("122", "R24", 20, 120).
link("161", "122").
streetOnRoute("1b", "R24", 40, 2315).
link("122", "1b").
streetOnRoute("1", "R24", 75, 3155).
link("1b", "1").
streetOnRoute("204a[0]", "R24", 110, 3190).
link("1", "204a[0]").
streetOnRoute("204b[0]", "R24", 160, 3310).
link("204a[0]", "204b[0]").
streetOnRoute("204[1][0]", "R24", 165, 3315).
link("204b[0]", "204[1][0]").
streetOnRoute("204[1][1]", "R24", 200, 3350).
link("204[1][0]", "204[1][1]").
route("R25").
streetOnRoute("131", "R25", 0, 0).
streetOnRoute("65", "R25", 30, 75).
link("131", "65").
streetOnRoute("57[0]", "R25", 40, 120).
link("65", "57[0]").
streetOnRoute("57[1]", "R25", 55, 205).
link("57[0]", "57[1]").
streetOnRoute("62", "R25", 60, 220).
link("57[1]", "62").
streetOnRoute("159", "R25", 80, 310).
link("62", "159").
streetOnRoute("42", "R25", 100, 415).
link("159", "42").
streetOnRoute("39", "R25", 105, 435).
link("42", "39").
streetOnRoute("35", "R25", 110, 455).
link("39", "35").
streetOnRoute("38", "R25", 120, 510).
link("35", "38").
streetOnRoute("15", "R25", 135, 570).
link("38", "15").
streetOnRoute("24", "R25", 175, 645).
link("15", "24").
streetOnRoute("[22|59]", "R25", 190, 660).
link("24", "[22|59]").
streetOnRoute("(53cd|53[0]|53[1][0])", "R25", 205, 680).
link("[22|59]", "(53cd|53[0]|53[1][0])").
streetOnRoute("79", "R25", 210, 700).
link("(53cd|53[0]|53[1][0])", "79").
streetOnRoute("[68|11]", "R25", 225, 720).
link("79", "[68|11]").
streetOnRoute("84", "R25", 265, 765).
link("[68|11]", "84").
streetOnRoute("180", "R25", 280, 780).
link("84", "180").
route("R26").
streetOnRoute("69", "R26", 0, 0).
streetOnRoute("161", "R26", 45, 95).
link("69", "161").
streetOnRoute("122", "R26", 65, 115).
link("161", "122").
streetOnRoute("1b", "R26", 85, 2150).
link("122", "1b").
streetOnRoute("1", "R26", 120, 2990).
link("1b", "1").
streetOnRoute("204a[0]", "R26", 155, 3025).
link("1", "204a[0]").
streetOnRoute("204b[0]", "R26", 205, 3145).
link("204a[0]", "204b[0]").
streetOnRoute("204[1][0]", "R26", 210, 3150).
link("204b[0]", "204[1][0]").
streetOnRoute("204[1][1]", "R26", 245, 3185).
link("204[1][0]", "204[1][1]").
route("R27").
streetOnRoute("131", "R27", 0, 0).
streetOnRoute("119", "R27", 30, 40).
link("131", "119").
streetOnRoute("[116|46]", "R27", 45, 140).
link("119", "[116|46]").
streetOnRoute("201", "R27", 90, 235).
link("[116|46]", "201").
streetOnRoute("201c", "R27", 140, 560).
link("201", "201c").
streetOnRoute("204a[0]", "R27", 175, 595).
link("201c", "204a[0]").
streetOnRoute("204b[0]", "R27", 225, 1510).
link("204a[0]", "204b[0]").
streetOnRoute("204[1][0]", "R27", 230, 1525).
link("204b[0]", "204[1][0]").
streetOnRoute("204[1][1]", "R27", 265, 1560).
link("204[1][0]", "204[1][1]").
route("R28").
streetOnRoute("86", "R28", 0, 0).
route("R29").
streetOnRoute("119", "R29", 0, 0).
streetOnRoute("[116|46]", "R29", 15, 110).
link("119", "[116|46]").
streetOnRoute("201", "R29", 60, 205).
link("[116|46]", "201").
streetOnRoute("201c", "R29", 110, 530).
link("201", "201c").
streetOnRoute("204a[0]", "R29", 145, 565).
link("201c", "204a[0]").
streetOnRoute("204b[0]", "R29", 195, 1480).
link("204a[0]", "204b[0]").
streetOnRoute("204[1][0]", "R29", 200, 1495).
link("204b[0]", "204[1][0]").
streetOnRoute("204[1][1]", "R29", 235, 1530).
link("204[1][0]", "204[1][1]").
route("R30").
streetOnRoute("[181|18]", "R30", 0, 0).
streetOnRoute("69", "R30", 40, 75).
link("[181|18]", "69").
streetOnRoute("161", "R30", 85, 170).
link("69", "161").
streetOnRoute("122", "R30", 105, 190).
link("161", "122").
streetOnRoute("1b", "R30", 125, 1700).
link("122", "1b").
streetOnRoute("1", "R30", 160, 2540).
link("1b", "1").
streetOnRoute("204a[0]", "R30", 195, 2575).
link("1", "204a[0]").
streetOnRoute("204b[0]", "R30", 245, 2695).
link("204a[0]", "204b[0]").
streetOnRoute("204[1][0]", "R30", 250, 2700).
link("204b[0]", "204[1][0]").
streetOnRoute("204[1][1]", "R30", 285, 2735).
link("204[1][0]", "204[1][1]").
route("R31").
streetOnRoute("159", "R31", 0, 0).
streetOnRoute("42", "R31", 20, 120).
link("159", "42").
streetOnRoute("39", "R31", 25, 140).
link("42", "39").
streetOnRoute("35", "R31", 30, 160).
link("39", "35").
streetOnRoute("38", "R31", 40, 215).
link("35", "38").
streetOnRoute("50", "R31", 55, 275).
link("38", "50").
streetOnRoute("19", "R31", 65, 305).
link("50", "19").
streetOnRoute("[22|59]", "R31", 75, 340).
link("19", "[22|59]").
streetOnRoute("(53cd|53[0]|53[1][0])", "R31", 90, 360).
link("[22|59]", "(53cd|53[0]|53[1][0])").
streetOnRoute("79", "R31", 95, 380).
link("(53cd|53[0]|53[1][0])", "79").
streetOnRoute("[68|11]", "R31", 110, 400).
link("79", "[68|11]").
streetOnRoute("84", "R31", 150, 445).
link("[68|11]", "84").
streetOnRoute("180", "R31", 165, 460).
link("84", "180").
route("R32").
streetOnRoute("57[1]", "R32", 0, 50).
streetOnRoute("62", "R32", 5, 95).
link("57[1]", "62").
streetOnRoute("159", "R32", 25, 185).
link("62", "159").
streetOnRoute("42", "R32", 45, 290).
link("159", "42").
streetOnRoute("39", "R32", 50, 310).
link("42", "39").
streetOnRoute("35", "R32", 55, 330).
link("39", "35").
streetOnRoute("38", "R32", 65, 385).
link("35", "38").
streetOnRoute("33", "R32", 80, 445).
link("38", "33").
streetOnRoute("10", "R32", 90, 455).
link("33", "10").
route("R33").
streetOnRoute("224[0]", "R33", 0, 0).
streetOnRoute("224[1]", "R33", 25, 145).
link("224[0]", "224[1]").
streetOnRoute("[181|18]", "R33", 40, 205).
link("224[1]", "[181|18]").
streetOnRoute("69", "R33", 80, 280).
link("[181|18]", "69").
streetOnRoute("161", "R33", 125, 375).
link("69", "161").
streetOnRoute("122", "R33", 145, 395).
link("161", "122").
streetOnRoute("1b", "R33", 165, 1320).
link("122", "1b").
streetOnRoute("1", "R33", 200, 2160).
link("1b", "1").
streetOnRoute("204a[0]", "R33", 235, 2195).
link("1", "204a[0]").
streetOnRoute("204b[0]", "R33", 285, 2315).
link("204a[0]", "204b[0]").
streetOnRoute("204[1][0]", "R33", 290, 2320).
link("204b[0]", "204[1][0]").
streetOnRoute("204[1][1]", "R33", 325, 2355).
link("204[1][0]", "204[1][1]").
route("R34").
streetOnRoute("194", "R34", 0, 0).
streetOnRoute("91", "R34", 15, 135).
link("194", "91").
streetOnRoute("173", "R34", 20, 155).
link("91", "173").
streetOnRoute("58[0]", "R34", 45, 180).
link("173", "58[0]").
streetOnRoute("58[1]", "R34", 50, 190).
link("58[0]", "58[1]").
streetOnRoute("197", "R34", 65, 205).
link("58[1]", "197").
streetOnRoute("[109[0]|109[1][0]+20003|109[1][1]]", "R34", 85, 225).
link("197", "[109[0]|109[1][0]+20003|109[1][1]]").
streetOnRoute("[116|46]", "R34", 95, 235).
link("[109[0]|109[1][0]+20003|109[1][1]]", "[116|46]").
streetOnRoute("201", "R34", 140, 300).
link("[116|46]", "201").
streetOnRoute("201c", "R34", 190, 575).
link("201", "201c").
streetOnRoute("204a[0]", "R34", 225, 610).
link("201c", "204a[0]").
streetOnRoute("204b[0]", "R34", 275, 1455).
link("204a[0]", "204b[0]").
streetOnRoute("204[1][0]", "R34", 280, 1470).
link("204b[0]", "204[1][0]").
streetOnRoute("204[1][1]", "R34", 315, 1505).
link("204[1][0]", "204[1][1]").
route("R35").
streetOnRoute("15", "R35", 0, 0).
streetOnRoute("14", "R35", 40, 80).
link("15", "14").
route("R36").
streetOnRoute("72[0]", "R36", 0, 0).
streetOnRoute("72[1]", "R36", 45, 485).
link("72[0]", "72[1]").
streetOnRoute("69", "R36", 80, 525).
link("72[1]", "69").
streetOnRoute("161", "R36", 125, 620).
link("69", "161").
streetOnRoute("122", "R36", 145, 640).
link("161", "122").
streetOnRoute("1b", "R36", 165, 1320).
link("122", "1b").
streetOnRoute("1", "R36", 200, 2160).
link("1b", "1").
streetOnRoute("204a[0]", "R36", 235, 2195).
link("1", "204a[0]").
streetOnRoute("204b[0]", "R36", 285, 2315).
link("204a[0]", "204b[0]").
streetOnRoute("204[1][0]", "R36", 290, 2320).
link("204b[0]", "204[1][0]").
streetOnRoute("204[1][1]", "R36", 325, 2355).
link("204[1][0]", "204[1][1]").
route("R37").
streetOnRoute("57[0]", "R37", 0, 0).
streetOnRoute("57[1]", "R37", 15, 105).
link("57[0]", "57[1]").
streetOnRoute("62", "R37", 20, 120).
link("57[1]", "62").
streetOnRoute("159", "R37", 40, 210).
link("62", "159").
streetOnRoute("42", "R37", 60, 315).
link("159", "42").
streetOnRoute("39", "R37", 65, 335).
link("42", "39").
streetOnRoute("35", "R37", 70, 355).
link("39", "35").
streetOnRoute("38", "R37", 80, 410).
link("35", "38").
streetOnRoute("33", "R37", 95, 470).
link("38", "33").
streetOnRoute("10", "R37", 105, 480).
link("33", "10").
route("R38").
streetOnRoute("[116|46]", "R38", 0, 0).
streetOnRoute("201", "R38", 45, 95).
link("[116|46]", "201").
streetOnRoute("201c", "R38", 95, 515).
link("201", "201c").
streetOnRoute("204a[0]", "R38", 130, 550).
link("201c", "204a[0]").
streetOnRoute("204b[0]", "R38", 180, 1500).
link("204a[0]", "204b[0]").
streetOnRoute("204[1][0]", "R38", 185, 1515).
link("204b[0]", "204[1][0]").
streetOnRoute("204[1][1]", "R38", 220, 1550).
link("204[1][0]", "204[1][1]").
route("R39").
streetOnRoute("1b", "R39", 0, 2275).
streetOnRoute("1", "R39", 35, 3115).
link("1b", "1").
streetOnRoute("204a[0]", "R39", 70, 3150).
link("1", "204a[0]").
streetOnRoute("204b[0]", "R39", 120, 3270).
link("204a[0]", "204b[0]").
streetOnRoute("204[1][0]", "R39", 125, 3275).
link("204b[0]", "204[1][0]").
streetOnRoute("204[1][1]", "R39", 160, 3310).
link("204[1][0]", "204[1][1]").
route("R40").
streetOnRoute("204a[0]", "R40", 0, 0).
streetOnRoute("204b[0]", "R40", 50, 180).
link("204a[0]", "204b[0]").
streetOnRoute("54", "R40", 55, 185).
link("204b[0]", "54").
route("R41").
streetOnRoute("204b[0]", "R41", 0, 1635).
streetOnRoute("204[1][0]", "R41", 5, 1650).
link("204b[0]", "204[1][0]").
streetOnRoute("204[1][1]", "R41", 40, 1685).
link("204[1][0]", "204[1][1]").
route("R42").
streetOnRoute("194", "R42", 0, 0).
streetOnRoute("91", "R42", 15, 135).
link("194", "91").
streetOnRoute("173", "R42", 20, 155).
link("91", "173").
streetOnRoute("62", "R42", 45, 180).
link("173", "62").
streetOnRoute("159", "R42", 65, 270).
link("62", "159").
streetOnRoute("42", "R42", 85, 375).
link("159", "42").
streetOnRoute("39", "R42", 90, 395).
link("42", "39").
streetOnRoute("35", "R42", 95, 415).
link("39", "35").
streetOnRoute("38", "R42", 105, 470).
link("35", "38").
streetOnRoute("33", "R42", 120, 530).
link("38", "33").
streetOnRoute("10", "R42", 130, 540).
link("33", "10").
route("R43").
streetOnRoute("m90", "R43", 0, 0).
streetOnRoute("[89[0]|20002+89[1][0]|89[1][1]]", "R43", 5, 15).
link("m90", "[89[0]|20002+89[1][0]|89[1][1]]").
streetOnRoute("91", "R43", 20, 120).
link("[89[0]|20002+89[1][0]|89[1][1]]", "91").
streetOnRoute("186", "R43", 25, 140).
link("91", "186").
streetOnRoute("[109[0]|109[1][0]+20003|109[1][1]]", "R43", 30, 170).
link("186", "[109[0]|109[1][0]+20003|109[1][1]]").
streetOnRoute("[116|46]", "R43", 40, 205).
link("[109[0]|109[1][0]+20003|109[1][1]]", "[116|46]").
streetOnRoute("113", "R43", 85, 300).
link("[116|46]", "113").
streetOnRoute("209", "R43", 125, 350).
link("113", "209").
route("R44").
streetOnRoute("57[0]", "R44", 0, 0).
streetOnRoute("57[1]", "R44", 15, 105).
link("57[0]", "57[1]").
streetOnRoute("62", "R44", 20, 120).
link("57[1]", "62").
streetOnRoute("159", "R44", 40, 210).
link("62", "159").
streetOnRoute("42", "R44", 60, 315).
link("159", "42").
streetOnRoute("39", "R44", 65, 335).
link("42", "39").
streetOnRoute("35", "R44", 70, 355).
link("39", "35").
streetOnRoute("38", "R44", 80, 410).
link("35", "38").
streetOnRoute("50", "R44", 95, 470).
link("38", "50").
streetOnRoute("19", "R44", 105, 500).
link("50", "19").
streetOnRoute("[22|59]", "R44", 115, 535).
link("19", "[22|59]").
streetOnRoute("(53cd|53[0]|53[1][0])", "R44", 130, 555).
link("[22|59]", "(53cd|53[0]|53[1][0])").
streetOnRoute("79", "R44", 135, 575).
link("(53cd|53[0]|53[1][0])", "79").
streetOnRoute("[68|11]", "R44", 150, 595).
link("79", "[68|11]").
streetOnRoute("84", "R44", 190, 640).
link("[68|11]", "84").
streetOnRoute("180", "R44", 205, 655).
link("84", "180").
route("R45").
streetOnRoute("131", "R45", 0, 0).
streetOnRoute("65", "R45", 30, 75).
link("131", "65").
streetOnRoute("57[0]", "R45", 40, 120).
link("65", "57[0]").
streetOnRoute("57[1]", "R45", 55, 205).
link("57[0]", "57[1]").
streetOnRoute("62", "R45", 60, 220).
link("57[1]", "62").
streetOnRoute("159", "R45", 80, 310).
link("62", "159").
streetOnRoute("42", "R45", 100, 415).
link("159", "42").
streetOnRoute("39", "R45", 105, 435).
link("42", "39").
streetOnRoute("35", "R45", 110, 455).
link("39", "35").
streetOnRoute("38", "R45", 120, 510).
link("35", "38").
streetOnRoute("50", "R45", 135, 570).
link("38", "50").
streetOnRoute("19", "R45", 145, 600).
link("50", "19").
streetOnRoute("[22|59]", "R45", 155, 635).
link("19", "[22|59]").
streetOnRoute("(53cd|53[0]|53[1][0])", "R45", 170, 655).
link("[22|59]", "(53cd|53[0]|53[1][0])").
streetOnRoute("79", "R45", 175, 675).
link("(53cd|53[0]|53[1][0])", "79").
streetOnRoute("[68|11]", "R45", 190, 695).
link("79", "[68|11]").
streetOnRoute("84", "R45", 230, 740).
link("[68|11]", "84").
streetOnRoute("180", "R45", 245, 755).
link("84", "180").
route("R46").
streetOnRoute("[116|46]", "R46", 0, 0).
streetOnRoute("113", "R46", 45, 95).
link("[116|46]", "113").
streetOnRoute("209", "R46", 85, 145).
link("113", "209").
route("R47").
streetOnRoute("[89[0]|20002+89[1][0]|89[1][1]]", "R47", 0, 0).
streetOnRoute("91", "R47", 15, 135).
link("[89[0]|20002+89[1][0]|89[1][1]]", "91").
streetOnRoute("186", "R47", 20, 155).
link("91", "186").
streetOnRoute("[109[0]|109[1][0]+20003|109[1][1]]", "R47", 25, 185).
link("186", "[109[0]|109[1][0]+20003|109[1][1]]").
streetOnRoute("[116|46]", "R47", 35, 220).
link("[109[0]|109[1][0]+20003|109[1][1]]", "[116|46]").
streetOnRoute("201", "R47", 80, 315).
link("[116|46]", "201").
streetOnRoute("201c", "R47", 130, 550).
link("201", "201c").
streetOnRoute("204a[0]", "R47", 165, 585).
link("201c", "204a[0]").
streetOnRoute("204b[0]", "R47", 215, 1500).
link("204a[0]", "204b[0]").
streetOnRoute("204[1][0]", "R47", 220, 1515).
link("204b[0]", "204[1][0]").
streetOnRoute("204[1][1]", "R47", 255, 1550).
link("204[1][0]", "204[1][1]").
route("R48").
streetOnRoute("159", "R48", 0, 0).
streetOnRoute("42", "R48", 20, 120).
link("159", "42").
streetOnRoute("39", "R48", 25, 140).
link("42", "39").
streetOnRoute("35", "R48", 30, 160).
link("39", "35").
streetOnRoute("38", "R48", 40, 215).
link("35", "38").
streetOnRoute("50", "R48", 55, 275).
link("38", "50").
streetOnRoute("19", "R48", 65, 305).
link("50", "19").
streetOnRoute("[22|59]", "R48", 75, 340).
link("19", "[22|59]").
streetOnRoute("(53cd|53[0]|53[1][0])", "R48", 90, 360).
link("[22|59]", "(53cd|53[0]|53[1][0])").
streetOnRoute("79", "R48", 95, 380).
link("(53cd|53[0]|53[1][0])", "79").
streetOnRoute("[68|11]", "R48", 110, 400).
link("79", "[68|11]").
streetOnRoute("86", "R48", 150, 445).
link("[68|11]", "86").
route("R49").
streetOnRoute("131", "R49", 0, 0).
streetOnRoute("119", "R49", 30, 40).
link("131", "119").
streetOnRoute("[116|46]", "R49", 45, 140).
link("119", "[116|46]").
streetOnRoute("113", "R49", 90, 235).
link("[116|46]", "113").
streetOnRoute("209", "R49", 130, 285).
link("113", "209").
route("R50").
streetOnRoute("[109[0]|109[1][0]+20003|109[1][1]]", "R50", 0, 0).
streetOnRoute("120", "R50", 10, 35).
link("[109[0]|109[1][0]+20003|109[1][1]]", "120").
streetOnRoute("65", "R50", 25, 70).
link("120", "65").
streetOnRoute("[200|60]", "R50", 35, 115).
link("65", "[200|60]").
route("R51").
streetOnRoute("194", "R51", 0, 0).
streetOnRoute("91", "R51", 15, 135).
link("194", "91").
streetOnRoute("186", "R51", 20, 155).
link("91", "186").
streetOnRoute("[109[0]|109[1][0]+20003|109[1][1]]", "R51", 25, 185).
link("186", "[109[0]|109[1][0]+20003|109[1][1]]").
streetOnRoute("[116|46]", "R51", 35, 220).
link("[109[0]|109[1][0]+20003|109[1][1]]", "[116|46]").
streetOnRoute("201", "R51", 80, 315).
link("[116|46]", "201").
streetOnRoute("201c", "R51", 130, 550).
link("201", "201c").
streetOnRoute("204a[0]", "R51", 165, 585).
link("201c", "204a[0]").
streetOnRoute("204b[0]", "R51", 215, 1500).
link("204a[0]", "204b[0]").
streetOnRoute("204[1][0]", "R51", 220, 1515).
link("204b[0]", "204[1][0]").
streetOnRoute("204[1][1]", "R51", 255, 1550).
link("204[1][0]", "204[1][1]").
route("R52").
streetOnRoute("39", "R52", 0, 15).
streetOnRoute("35", "R52", 5, 115).
link("39", "35").
streetOnRoute("38", "R52", 15, 170).
link("35", "38").
streetOnRoute("15", "R52", 30, 230).
link("38", "15").
streetOnRoute("14", "R52", 70, 305).
link("15", "14").
route("R53").
streetOnRoute("85", "R53", 0, 0).
streetOnRoute("72[0]", "R53", 60, 60).
link("85", "72[0]").
streetOnRoute("72[1]", "R53", 105, 545).
link("72[0]", "72[1]").
streetOnRoute("69", "R53", 140, 585).
link("72[1]", "69").
streetOnRoute("161", "R53", 185, 680).
link("69", "161").
streetOnRoute("194", "R53", 205, 700).
link("161", "194").
streetOnRoute("91", "R53", 220, 715).
link("194", "91").
streetOnRoute("186", "R53", 225, 720).
link("91", "186").
streetOnRoute("[109[0]|109[1][0]+20003|109[1][1]]", "R53", 230, 725).
link("186", "[109[0]|109[1][0]+20003|109[1][1]]").
streetOnRoute("[116|46]", "R53", 240, 735).
link("[109[0]|109[1][0]+20003|109[1][1]]", "[116|46]").
streetOnRoute("201", "R53", 285, 780).
link("[116|46]", "201").
streetOnRoute("201c", "R53", 335, 830).
link("201", "201c").
streetOnRoute("204a[0]", "R53", 370, 865).
link("201c", "204a[0]").
streetOnRoute("204b[0]", "R53", 420, 1110).
link("204a[0]", "204b[0]").
streetOnRoute("204[1][0]", "R53", 425, 1125).
link("204b[0]", "204[1][0]").
streetOnRoute("204[1][1]", "R53", 460, 1160).
link("204[1][0]", "204[1][1]").
route("R54").
streetOnRoute("91", "R54", 0, 0).
streetOnRoute("186", "R54", 5, 65).
link("91", "186").
streetOnRoute("[109[0]|109[1][0]+20003|109[1][1]]", "R54", 10, 95).
link("186", "[109[0]|109[1][0]+20003|109[1][1]]").
streetOnRoute("120", "R54", 20, 130).
link("[109[0]|109[1][0]+20003|109[1][1]]", "120").
streetOnRoute("65", "R54", 35, 150).
link("120", "65").
streetOnRoute("[200|60]", "R54", 45, 195).
link("65", "[200|60]").
route("R55").
streetOnRoute("159", "R55", 0, 0).
streetOnRoute("42", "R55", 20, 120).
link("159", "42").
streetOnRoute("39", "R55", 25, 140).
link("42", "39").
streetOnRoute("35", "R55", 30, 160).
link("39", "35").
streetOnRoute("38", "R55", 40, 215).
link("35", "38").
streetOnRoute("15", "R55", 55, 275).
link("38", "15").
streetOnRoute("14", "R55", 95, 350).
link("15", "14").
route("R56").
streetOnRoute("119", "R56", 0, 0).
streetOnRoute("[116|46]", "R56", 15, 110).
link("119", "[116|46]").
streetOnRoute("201", "R56", 60, 205).
link("[116|46]", "201").
streetOnRoute("201c", "R56", 110, 530).
link("201", "201c").
streetOnRoute("204a[0]", "R56", 145, 565).
link("201c", "204a[0]").
streetOnRoute("124", "R56", 195, 685).
link("204a[0]", "124").
route("R57").
streetOnRoute("61", "R57", 0, 0).
streetOnRoute("58[0]", "R57", 20, 20).
link("61", "58[0]").
streetOnRoute("58[1]", "R57", 25, 30).
link("58[0]", "58[1]").
streetOnRoute("197", "R57", 40, 45).
link("58[1]", "197").
streetOnRoute("[109[0]|109[1][0]+20003|109[1][1]]", "R57", 60, 95).
link("197", "[109[0]|109[1][0]+20003|109[1][1]]").
streetOnRoute("[116|46]", "R57", 70, 165).
link("[109[0]|109[1][0]+20003|109[1][1]]", "[116|46]").
streetOnRoute("201", "R57", 115, 260).
link("[116|46]", "201").
streetOnRoute("201c", "R57", 165, 585).
link("201", "201c").
streetOnRoute("204a[0]", "R57", 200, 620).
link("201c", "204a[0]").
streetOnRoute("204b[0]", "R57", 250, 1430).
link("204a[0]", "204b[0]").
streetOnRoute("204[1][0]", "R57", 255, 1445).
link("204b[0]", "204[1][0]").
streetOnRoute("204[1][1]", "R57", 290, 1480).
link("204[1][0]", "204[1][1]").
route("R58").
streetOnRoute("161", "R58", 0, 0).
streetOnRoute("194", "R58", 20, 25).
link("161", "194").
streetOnRoute("91", "R58", 35, 95).
link("194", "91").
streetOnRoute("186", "R58", 40, 115).
link("91", "186").
streetOnRoute("[109[0]|109[1][0]+20003|109[1][1]]", "R58", 45, 145).
link("186", "[109[0]|109[1][0]+20003|109[1][1]]").
streetOnRoute("[116|46]", "R58", 55, 180).
link("[109[0]|109[1][0]+20003|109[1][1]]", "[116|46]").
streetOnRoute("201", "R58", 100, 275).
link("[116|46]", "201").
streetOnRoute("201c", "R58", 150, 570).
link("201", "201c").
streetOnRoute("204a[0]", "R58", 185, 605).
link("201c", "204a[0]").
streetOnRoute("204b[0]", "R58", 235, 1520).
link("204a[0]", "204b[0]").
streetOnRoute("204[1][0]", "R58", 240, 1535).
link("204b[0]", "204[1][0]").
streetOnRoute("204[1][1]", "R58", 275, 1570).
link("204[1][0]", "204[1][1]").
route("R59").
streetOnRoute("201", "R59", 0, 0).
streetOnRoute("201c", "R59", 50, 470).
link("201", "201c").
streetOnRoute("204a[0]", "R59", 85, 505).
link("201c", "204a[0]").
streetOnRoute("204b[0]", "R59", 135, 1770).
link("204a[0]", "204b[0]").
streetOnRoute("204[1][0]", "R59", 140, 1785).
link("204b[0]", "204[1][0]").
streetOnRoute("204[1][1]", "R59", 175, 1820).
link("204[1][0]", "204[1][1]").
route("R60").
streetOnRoute("[181|18]", "R60", 0, 0).
streetOnRoute("[17|71]", "R60", 40, 75).
link("[181|18]", "[17|71]").
streetOnRoute("67", "R60", 90, 130).
link("[17|71]", "67").
streetOnRoute("[80|127]", "R60", 100, 145).
link("67", "[80|127]").
streetOnRoute("(77[1][0])", "R60", 115, 180).
link("[80|127]", "(77[1][0])").
streetOnRoute("77[1][1]", "R60", 120, 200).
link("(77[1][0])", "77[1][1]").
route("R61").
streetOnRoute("85", "R61", 0, 0).
streetOnRoute("72[0]", "R61", 60, 60).
link("85", "72[0]").
streetOnRoute("72[1]", "R61", 105, 545).
link("72[0]", "72[1]").
streetOnRoute("69", "R61", 140, 585).
link("72[1]", "69").
streetOnRoute("161", "R61", 185, 680).
link("69", "161").
streetOnRoute("122", "R61", 205, 700).
link("161", "122").
streetOnRoute("1b", "R61", 225, 1065).
link("122", "1b").
streetOnRoute("1", "R61", 260, 1905).
link("1b", "1").
streetOnRoute("204a[0]", "R61", 295, 1940).
link("1", "204a[0]").
streetOnRoute("204b[0]", "R61", 345, 2060).
link("204a[0]", "204b[0]").
streetOnRoute("54", "R61", 350, 2065).
link("204b[0]", "54").
route("R62").
streetOnRoute("117", "R62", 0, 0).
streetOnRoute("209", "R62", 45, 50).
link("117", "209").
route("R63").
streetOnRoute("33", "R63", 0, 0).
streetOnRoute("10", "R63", 10, 55).
link("33", "10").
streetOnRoute("[13|104]", "R63", 20, 100).
link("10", "[13|104]").
streetOnRoute("24", "R63", 55, 135).
link("[13|104]", "24").
streetOnRoute("[22|59]", "R63", 70, 150).
link("24", "[22|59]").
streetOnRoute("(53cd|53[0]|53[1][0])", "R63", 85, 170).
link("[22|59]", "(53cd|53[0]|53[1][0])").
streetOnRoute("79", "R63", 90, 190).
link("(53cd|53[0]|53[1][0])", "79").
streetOnRoute("[68|11]", "R63", 105, 210).
link("79", "[68|11]").
streetOnRoute("86", "R63", 145, 255).
link("[68|11]", "86").
route("R64").
streetOnRoute("1b", "R64", 0, 2275).
streetOnRoute("1", "R64", 35, 3115).
link("1b", "1").
streetOnRoute("204a[0]", "R64", 70, 3150).
link("1", "204a[0]").
streetOnRoute("204b[0]", "R64", 120, 3270).
link("204a[0]", "204b[0]").
streetOnRoute("54", "R64", 125, 3275).
link("204b[0]", "54").
route("R65").
streetOnRoute("38", "R65", 0, 0).
streetOnRoute("15", "R65", 15, 90).
link("38", "15").
streetOnRoute("14", "R65", 55, 165).
link("15", "14").
route("R66").
streetOnRoute("197", "R66", 0, 0).
streetOnRoute("[109[0]|109[1][0]+20003|109[1][1]]", "R66", 20, 90).
link("197", "[109[0]|109[1][0]+20003|109[1][1]]").
streetOnRoute("[116|46]", "R66", 30, 125).
link("[109[0]|109[1][0]+20003|109[1][1]]", "[116|46]").
streetOnRoute("201", "R66", 75, 220).
link("[116|46]", "201").
streetOnRoute("201c", "R66", 125, 545).
link("201", "201c").
streetOnRoute("204a[0]", "R66", 160, 580).
link("201c", "204a[0]").
streetOnRoute("204b[0]", "R66", 210, 1495).
link("204a[0]", "204b[0]").
streetOnRoute("204[1][0]", "R66", 215, 1510).
link("204b[0]", "204[1][0]").
streetOnRoute("204[1][1]", "R66", 250, 1545).
link("204[1][0]", "204[1][1]").
route("R67").
streetOnRoute("224[1]", "R67", 0, 0).
streetOnRoute("[181|18]", "R67", 15, 90).
link("224[1]", "[181|18]").
streetOnRoute("69", "R67", 55, 165).
link("[181|18]", "69").
streetOnRoute("161", "R67", 100, 260).
link("69", "161").
streetOnRoute("122", "R67", 120, 280).
link("161", "122").
streetOnRoute("1b", "R67", 140, 1610).
link("122", "1b").
streetOnRoute("1", "R67", 175, 2450).
link("1b", "1").
streetOnRoute("204a[0]", "R67", 210, 2485).
link("1", "204a[0]").
streetOnRoute("204b[0]", "R67", 260, 2605).
link("204a[0]", "204b[0]").
streetOnRoute("204[1][0]", "R67", 265, 2610).
link("204b[0]", "204[1][0]").
streetOnRoute("204[1][1]", "R67", 300, 2645).
link("204[1][0]", "204[1][1]").
route("R68").
streetOnRoute("54", "R68", 0, 0).
route("R69").
streetOnRoute("119", "R69", 0, 0).
streetOnRoute("[116|46]", "R69", 15, 110).
link("119", "[116|46]").
streetOnRoute("201", "R69", 60, 205).
link("[116|46]", "201").
streetOnRoute("201c", "R69", 110, 530).
link("201", "201c").
streetOnRoute("204a[0]", "R69", 145, 565).
link("201c", "204a[0]").
streetOnRoute("204b[0]", "R69", 195, 685).
link("204a[0]", "204b[0]").
streetOnRoute("54", "R69", 200, 690).
link("204b[0]", "54").
route("R70").
streetOnRoute("209", "R70", 0, 0).
route("R71").
streetOnRoute("159", "R71", 0, 0).
streetOnRoute("42", "R71", 20, 120).
link("159", "42").
streetOnRoute("39", "R71", 25, 140).
link("42", "39").
streetOnRoute("35", "R71", 30, 160).
link("39", "35").
streetOnRoute("38", "R71", 40, 215).
link("35", "38").
streetOnRoute("50", "R71", 55, 275).
link("38", "50").
streetOnRoute("19", "R71", 65, 305).
link("50", "19").
streetOnRoute("[22|59]", "R71", 75, 340).
link("19", "[22|59]").
streetOnRoute("(53cd|53[0])", "R71", 90, 360).
link("[22|59]", "(53cd|53[0])").
streetOnRoute("78[1][1]", "R71", 95, 370).
link("(53cd|53[0])", "78[1][1]").
streetOnRoute("[189[0]|189[1][0]+20000|189[1][1]]", "R71", 105, 380).
link("78[1][1]", "[189[0]|189[1][0]+20000|189[1][1]]").
streetOnRoute("191", "R71", 155, 430).
link("[189[0]|189[1][0]+20000|189[1][1]]", "191").
streetOnRoute("[17|71]", "R71", 200, 475).
link("191", "[17|71]").
streetOnRoute("84", "R71", 250, 530).
link("[17|71]", "84").
streetOnRoute("180", "R71", 265, 545).
link("84", "180").
route("R72").
streetOnRoute("62", "R72", 0, 0).
streetOnRoute("159", "R72", 20, 125).
link("62", "159").
streetOnRoute("42", "R72", 40, 230).
link("159", "42").
streetOnRoute("39", "R72", 45, 250).
link("42", "39").
streetOnRoute("35", "R72", 50, 270).
link("39", "35").
streetOnRoute("38", "R72", 60, 325).
link("35", "38").
streetOnRoute("15", "R72", 75, 385).
link("38", "15").
streetOnRoute("14", "R72", 115, 460).
link("15", "14").
route("R73").
streetOnRoute("50", "R73", 0, 0).
streetOnRoute("19", "R73", 10, 45).
link("50", "19").
streetOnRoute("[22|59]", "R73", 20, 80).
link("19", "[22|59]").
streetOnRoute("(53cd|53[0]|53[1][0])", "R73", 35, 115).
link("[22|59]", "(53cd|53[0]|53[1][0])").
streetOnRoute("79", "R73", 40, 135).
link("(53cd|53[0]|53[1][0])", "79").
streetOnRoute("[68|11]", "R73", 55, 155).
link("79", "[68|11]").
streetOnRoute("84", "R73", 95, 200).
link("[68|11]", "84").
streetOnRoute("180", "R73", 110, 215).
link("84", "180").
route("R74").
streetOnRoute("62", "R74", 0, 0).
streetOnRoute("159", "R74", 20, 125).
link("62", "159").
streetOnRoute("42", "R74", 40, 230).
link("159", "42").
streetOnRoute("39", "R74", 45, 250).
link("42", "39").
streetOnRoute("35", "R74", 50, 270).
link("39", "35").
streetOnRoute("38", "R74", 60, 325).
link("35", "38").
streetOnRoute("33", "R74", 75, 385).
link("38", "33").
streetOnRoute("10", "R74", 85, 395).
link("33", "10").
route("R75").
streetOnRoute("69", "R75", 0, 0).
streetOnRoute("161", "R75", 45, 95).
link("69", "161").
streetOnRoute("122", "R75", 65, 115).
link("161", "122").
streetOnRoute("1b", "R75", 85, 2150).
link("122", "1b").
streetOnRoute("1", "R75", 120, 2990).
link("1b", "1").
streetOnRoute("204a[0]", "R75", 155, 3025).
link("1", "204a[0]").
streetOnRoute("204b[0]", "R75", 205, 3145).
link("204a[0]", "204b[0]").
streetOnRoute("54", "R75", 210, 3150).
link("204b[0]", "54").
route("R76").
streetOnRoute("159", "R76", 0, 0).
streetOnRoute("42", "R76", 20, 120).
link("159", "42").
streetOnRoute("39", "R76", 25, 140).
link("42", "39").
streetOnRoute("35", "R76", 30, 160).
link("39", "35").
streetOnRoute("38", "R76", 40, 215).
link("35", "38").
streetOnRoute("50", "R76", 55, 275).
link("38", "50").
streetOnRoute("19", "R76", 65, 305).
link("50", "19").
streetOnRoute("[22|59]", "R76", 75, 340).
link("19", "[22|59]").
streetOnRoute("(53cd|53[0]|53[1][0]|53[1][1][0]|77[1][0])", "R76", 90, 360).
link("[22|59]", "(53cd|53[0]|53[1][0]|53[1][1][0]|77[1][0])").
streetOnRoute("77[1][1]", "R76", 95, 365).
link("(53cd|53[0]|53[1][0]|53[1][1][0]|77[1][0])", "77[1][1]").
route("R77").
streetOnRoute("[202|34]", "R77", 0, 0).
streetOnRoute("113", "R77", 50, 50).
link("[202|34]", "113").
streetOnRoute("209", "R77", 90, 100).
link("113", "209").
route("R78").
streetOnRoute("194", "R78", 0, 0).
streetOnRoute("91", "R78", 15, 135).
link("194", "91").
streetOnRoute("186", "R78", 20, 155).
link("91", "186").
streetOnRoute("[109[0]|109[1][0]+20003|109[1][1]]", "R78", 25, 185).
link("186", "[109[0]|109[1][0]+20003|109[1][1]]").
streetOnRoute("[116|46]", "R78", 35, 220).
link("[109[0]|109[1][0]+20003|109[1][1]]", "[116|46]").
streetOnRoute("201", "R78", 80, 315).
link("[116|46]", "201").
streetOnRoute("201c", "R78", 130, 550).
link("201", "201c").
streetOnRoute("204a[0]", "R78", 165, 585).
link("201c", "204a[0]").
streetOnRoute("204b[0]", "R78", 215, 705).
link("204a[0]", "204b[0]").
streetOnRoute("54", "R78", 220, 710).
link("204b[0]", "54").
route("R79").
streetOnRoute("173", "R79", 0, 0).
streetOnRoute("62", "R79", 25, 115).
link("173", "62").
streetOnRoute("159", "R79", 45, 205).
link("62", "159").
streetOnRoute("42", "R79", 65, 310).
link("159", "42").
streetOnRoute("39", "R79", 70, 330).
link("42", "39").
streetOnRoute("35", "R79", 75, 350).
link("39", "35").
streetOnRoute("38", "R79", 85, 405).
link("35", "38").
streetOnRoute("15", "R79", 100, 465).
link("38", "15").
streetOnRoute("14", "R79", 140, 540).
link("15", "14").
route("R80").
streetOnRoute("58[1]", "R80", 0, 0).
streetOnRoute("[200|60]", "R80", 15, 15).
link("58[1]", "[200|60]").
route("R81").
streetOnRoute("[89[0]|20002+89[1][0]|89[1][1]]", "R81", 0, 0).
streetOnRoute("91", "R81", 15, 135).
link("[89[0]|20002+89[1][0]|89[1][1]]", "91").
streetOnRoute("186", "R81", 20, 155).
link("91", "186").
streetOnRoute("[109[0]|109[1][0]+20003|109[1][1]]", "R81", 25, 185).
link("186", "[109[0]|109[1][0]+20003|109[1][1]]").
streetOnRoute("[116|46]", "R81", 35, 220).
link("[109[0]|109[1][0]+20003|109[1][1]]", "[116|46]").
streetOnRoute("201", "R81", 80, 315).
link("[116|46]", "201").
streetOnRoute("201c", "R81", 130, 550).
link("201", "201c").
streetOnRoute("204a[0]", "R81", 165, 585).
link("201c", "204a[0]").
streetOnRoute("124", "R81", 215, 705).
link("204a[0]", "124").
route("R82").
streetOnRoute("194", "R82", 0, 0).
streetOnRoute("91", "R82", 15, 135).
link("194", "91").
streetOnRoute("173", "R82", 20, 155).
link("91", "173").
streetOnRoute("58[0]", "R82", 45, 180).
link("173", "58[0]").
streetOnRoute("58[1]", "R82", 50, 190).
link("58[0]", "58[1]").
streetOnRoute("[200|60]", "R82", 65, 205).
link("58[1]", "[200|60]").
route("R83").
streetOnRoute("[109[0]|109[1][0]+20003|109[1][1]]", "R83", 0, 0).
streetOnRoute("[116|46]", "R83", 10, 105).
link("[109[0]|109[1][0]+20003|109[1][1]]", "[116|46]").
streetOnRoute("113", "R83", 55, 200).
link("[116|46]", "113").
streetOnRoute("209", "R83", 95, 250).
link("113", "209").
route("R84").
streetOnRoute("224[0]", "R84", 0, 0).
streetOnRoute("224[1]", "R84", 25, 145).
link("224[0]", "224[1]").
streetOnRoute("[181|18]", "R84", 40, 205).
link("224[1]", "[181|18]").
streetOnRoute("69", "R84", 80, 280).
link("[181|18]", "69").
streetOnRoute("161", "R84", 125, 375).
link("69", "161").
streetOnRoute("122", "R84", 145, 395).
link("161", "122").
streetOnRoute("[3|2]", "R84", 165, 425).
link("122", "[3|2]").
streetOnRoute("[202|34]", "R84", 200, 460).
link("[3|2]", "[202|34]").
streetOnRoute("113", "R84", 250, 510).
link("[202|34]", "113").
streetOnRoute("209", "R84", 290, 550).
link("113", "209").
route("R85").
streetOnRoute("35", "R85", 0, 0).
streetOnRoute("38", "R85", 10, 70).
link("35", "38").
streetOnRoute("50", "R85", 25, 130).
link("38", "50").
streetOnRoute("19", "R85", 35, 160).
link("50", "19").
streetOnRoute("[22|59]", "R85", 45, 195).
link("19", "[22|59]").
streetOnRoute("(53cd|53[0]|53[1][0])", "R85", 60, 215).
link("[22|59]", "(53cd|53[0]|53[1][0])").
streetOnRoute("79", "R85", 65, 235).
link("(53cd|53[0]|53[1][0])", "79").
streetOnRoute("[68|11]", "R85", 80, 255).
link("79", "[68|11]").
streetOnRoute("84", "R85", 120, 300).
link("[68|11]", "84").
streetOnRoute("180", "R85", 135, 315).
link("84", "180").
route("R86").
streetOnRoute("194", "R86", 0, 0).
streetOnRoute("91", "R86", 15, 135).
link("194", "91").
streetOnRoute("173", "R86", 20, 155).
link("91", "173").
streetOnRoute("62", "R86", 45, 180).
link("173", "62").
streetOnRoute("159", "R86", 65, 270).
link("62", "159").
streetOnRoute("42", "R86", 85, 375).
link("159", "42").
streetOnRoute("39", "R86", 90, 395).
link("42", "39").
streetOnRoute("35", "R86", 95, 415).
link("39", "35").
streetOnRoute("38", "R86", 105, 470).
link("35", "38").
streetOnRoute("15", "R86", 120, 530).
link("38", "15").
streetOnRoute("14", "R86", 160, 605).
link("15", "14").
route("R87").
streetOnRoute("[181|18]", "R87", 0, 0).
streetOnRoute("69", "R87", 40, 75).
link("[181|18]", "69").
streetOnRoute("161", "R87", 85, 170).
link("69", "161").
streetOnRoute("122", "R87", 105, 190).
link("161", "122").
streetOnRoute("[3|2]", "R87", 125, 220).
link("122", "[3|2]").
streetOnRoute("[202|34]", "R87", 160, 255).
link("[3|2]", "[202|34]").
streetOnRoute("134", "R87", 210, 305).
link("[202|34]", "134").
route("R88").
streetOnRoute("[181|18]", "R88", 0, 0).
streetOnRoute("[17|71]", "R88", 40, 75).
link("[181|18]", "[17|71]").
streetOnRoute("86", "R88", 90, 130).
link("[17|71]", "86").
route("R89").
streetOnRoute("131", "R89", 0, 0).
streetOnRoute("65", "R89", 30, 75).
link("131", "65").
streetOnRoute("[200|60]", "R89", 40, 120).
link("65", "[200|60]").
route("R90").
streetOnRoute("180", "R90", 0, 0).
route("R91").
streetOnRoute("61", "R91", 0, 0).
streetOnRoute("58[0]", "R91", 20, 20).
link("61", "58[0]").
streetOnRoute("58[1]", "R91", 25, 30).
link("58[0]", "58[1]").
streetOnRoute("[200|60]", "R91", 40, 45).
link("58[1]", "[200|60]").
route("R92").
streetOnRoute("120", "R92", 0, 0).
streetOnRoute("117", "R92", 15, 20).
link("120", "117").
streetOnRoute("209", "R92", 60, 70).
link("117", "209").
route("R93").
streetOnRoute("69", "R93", 0, 0).
streetOnRoute("161", "R93", 45, 95).
link("69", "161").
streetOnRoute("122", "R93", 65, 115).
link("161", "122").
streetOnRoute("[3|2]", "R93", 85, 170).
link("122", "[3|2]").
streetOnRoute("[202|34]", "R93", 120, 205).
link("[3|2]", "[202|34]").
streetOnRoute("113", "R93", 170, 255).
link("[202|34]", "113").
streetOnRoute("209", "R93", 210, 295).
link("113", "209").
route("R94").
streetOnRoute("38", "R94", 0, 0).
streetOnRoute("50", "R94", 15, 60).
link("38", "50").
streetOnRoute("19", "R94", 25, 90).
link("50", "19").
streetOnRoute("[22|59]", "R94", 35, 125).
link("19", "[22|59]").
streetOnRoute("(53cd|53[0]|53[1][0])", "R94", 50, 145).
link("[22|59]", "(53cd|53[0]|53[1][0])").
streetOnRoute("79", "R94", 55, 165).
link("(53cd|53[0]|53[1][0])", "79").
streetOnRoute("[68|11]", "R94", 70, 185).
link("79", "[68|11]").
streetOnRoute("84", "R94", 110, 230).
link("[68|11]", "84").
streetOnRoute("180", "R94", 125, 245).
link("84", "180").
route("R95").
streetOnRoute("186", "R95", 0, 0).
streetOnRoute("[109[0]|109[1][0]+20003|109[1][1]]", "R95", 5, 75).
link("186", "[109[0]|109[1][0]+20003|109[1][1]]").
streetOnRoute("120", "R95", 15, 110).
link("[109[0]|109[1][0]+20003|109[1][1]]", "120").
streetOnRoute("65", "R95", 30, 130).
link("120", "65").
streetOnRoute("[200|60]", "R95", 40, 175).
link("65", "[200|60]").
route("R96").
streetOnRoute("72[1]", "R96", 0, 0).
streetOnRoute("69", "R96", 35, 40).
link("72[1]", "69").
streetOnRoute("161", "R96", 80, 135).
link("69", "161").
streetOnRoute("122", "R96", 100, 155).
link("161", "122").
streetOnRoute("1b", "R96", 120, 1695).
link("122", "1b").
streetOnRoute("1", "R96", 155, 2535).
link("1b", "1").
streetOnRoute("204a[0]", "R96", 190, 2570).
link("1", "204a[0]").
streetOnRoute("204b[0]", "R96", 240, 2690).
link("204a[0]", "204b[0]").
streetOnRoute("204[1][0]", "R96", 245, 2695).
link("204b[0]", "204[1][0]").
streetOnRoute("204[1][1]", "R96", 280, 2730).
link("204[1][0]", "204[1][1]").
route("R97").
streetOnRoute("72[0]", "R97", 0, 0).
streetOnRoute("72[1]", "R97", 45, 485).
link("72[0]", "72[1]").
streetOnRoute("69", "R97", 80, 525).
link("72[1]", "69").
streetOnRoute("161", "R97", 125, 620).
link("69", "161").
streetOnRoute("122", "R97", 145, 640).
link("161", "122").
streetOnRoute("1b", "R97", 165, 1320).
link("122", "1b").
streetOnRoute("1", "R97", 200, 2160).
link("1b", "1").
streetOnRoute("204a[0]", "R97", 235, 2195).
link("1", "204a[0]").
streetOnRoute("124", "R97", 285, 2315).
link("204a[0]", "124").
route("R98").
streetOnRoute("35", "R98", 0, 0).
streetOnRoute("38", "R98", 10, 70).
link("35", "38").
streetOnRoute("50", "R98", 25, 130).
link("38", "50").
streetOnRoute("19", "R98", 35, 160).
link("50", "19").
streetOnRoute("[22|59]", "R98", 45, 195).
link("19", "[22|59]").
streetOnRoute("(53cd|53[0]|53[1][0]|53[1][1][0]|77[1][0])", "R98", 60, 215).
link("[22|59]", "(53cd|53[0]|53[1][0]|53[1][1][0]|77[1][0])").
streetOnRoute("77[1][1]", "R98", 65, 220).
link("(53cd|53[0]|53[1][0]|53[1][1][0]|77[1][0])", "77[1][1]").
route("R99").
streetOnRoute("[89[0]|20002+89[1][0]|89[1][1]]", "R99", 0, 0).
streetOnRoute("91", "R99", 15, 135).
link("[89[0]|20002+89[1][0]|89[1][1]]", "91").
streetOnRoute("186", "R99", 20, 155).
link("91", "186").
streetOnRoute("[109[0]|109[1][0]+20003|109[1][1]]", "R99", 25, 185).
link("186", "[109[0]|109[1][0]+20003|109[1][1]]").
streetOnRoute("[116|46]", "R99", 35, 220).
link("[109[0]|109[1][0]+20003|109[1][1]]", "[116|46]").
streetOnRoute("113", "R99", 80, 315).
link("[116|46]", "113").
streetOnRoute("209", "R99", 120, 365).
link("113", "209").
route("R100").
streetOnRoute("201c", "R100", 0, 50).
streetOnRoute("204a[0]", "R100", 35, 155).
link("201c", "204a[0]").
streetOnRoute("204b[0]", "R100", 85, 275).
link("204a[0]", "204b[0]").
streetOnRoute("54", "R100", 90, 280).
link("204b[0]", "54").
route("R101").
streetOnRoute("1b", "R101", 0, 2275).
streetOnRoute("1", "R101", 35, 3115).
link("1b", "1").
streetOnRoute("204a[0]", "R101", 70, 3150).
link("1", "204a[0]").
streetOnRoute("124", "R101", 120, 3270).
link("204a[0]", "124").
route("R102").
streetOnRoute("224[0]", "R102", 0, 0).
streetOnRoute("224[1]", "R102", 25, 145).
link("224[0]", "224[1]").
streetOnRoute("[181|18]", "R102", 40, 205).
link("224[1]", "[181|18]").
streetOnRoute("69", "R102", 80, 280).
link("[181|18]", "69").
streetOnRoute("161", "R102", 125, 375).
link("69", "161").
streetOnRoute("194", "R102", 145, 395).
link("161", "194").
streetOnRoute("91", "R102", 160, 410).
link("194", "91").
streetOnRoute("186", "R102", 165, 415).
link("91", "186").
streetOnRoute("[109[0]|109[1][0]+20003|109[1][1]]", "R102", 170, 420).
link("186", "[109[0]|109[1][0]+20003|109[1][1]]").
streetOnRoute("[116|46]", "R102", 180, 430).
link("[109[0]|109[1][0]+20003|109[1][1]]", "[116|46]").
streetOnRoute("201", "R102", 225, 475).
link("[116|46]", "201").
streetOnRoute("201c", "R102", 275, 555).
link("201", "201c").
streetOnRoute("204a[0]", "R102", 310, 590).
link("201c", "204a[0]").
streetOnRoute("204b[0]", "R102", 360, 840).
link("204a[0]", "204b[0]").
streetOnRoute("204[1][0]", "R102", 365, 855).
link("204b[0]", "204[1][0]").
streetOnRoute("204[1][1]", "R102", 400, 890).
link("204[1][0]", "204[1][1]").
route("R103").
streetOnRoute("[189[0]|189[1][0]+20000|189[1][1]]", "R103", 0, 0).
streetOnRoute("191", "R103", 50, 50).
link("[189[0]|189[1][0]+20000|189[1][1]]", "191").
streetOnRoute("[17|71]", "R103", 95, 95).
link("191", "[17|71]").
streetOnRoute("86", "R103", 145, 150).
link("[17|71]", "86").
route("R104").
streetOnRoute("35", "R104", 0, 0).
streetOnRoute("38", "R104", 10, 70).
link("35", "38").
streetOnRoute("15", "R104", 25, 130).
link("38", "15").
streetOnRoute("14", "R104", 65, 205).
link("15", "14").
route("R105").
streetOnRoute("85", "R105", 0, 0).
streetOnRoute("72[0]", "R105", 60, 60).
link("85", "72[0]").
streetOnRoute("72[1]", "R105", 105, 545).
link("72[0]", "72[1]").
streetOnRoute("69", "R105", 140, 585).
link("72[1]", "69").
streetOnRoute("161", "R105", 185, 680).
link("69", "161").
streetOnRoute("122", "R105", 205, 700).
link("161", "122").
streetOnRoute("[3|2]", "R105", 225, 730).
link("122", "[3|2]").
streetOnRoute("[202|34]", "R105", 260, 765).
link("[3|2]", "[202|34]").
streetOnRoute("134", "R105", 310, 815).
link("[202|34]", "134").
route("R106").
streetOnRoute("42", "R106", 0, 5).
streetOnRoute("39", "R106", 5, 85).
link("42", "39").
streetOnRoute("35", "R106", 10, 120).
link("39", "35").
streetOnRoute("38", "R106", 20, 175).
link("35", "38").
streetOnRoute("33", "R106", 35, 235).
link("38", "33").
streetOnRoute("10", "R106", 45, 245).
link("33", "10").
route("R107").
streetOnRoute("[116|46]", "R107", 0, 0).
streetOnRoute("201", "R107", 45, 95).
link("[116|46]", "201").
streetOnRoute("201c", "R107", 95, 515).
link("201", "201c").
streetOnRoute("204a[0]", "R107", 130, 550).
link("201c", "204a[0]").
streetOnRoute("204b[0]", "R107", 180, 670).
link("204a[0]", "204b[0]").
streetOnRoute("54", "R107", 185, 675).
link("204b[0]", "54").
route("R108").
streetOnRoute("186", "R108", 0, 0).
streetOnRoute("[109[0]|109[1][0]+20003|109[1][1]]", "R108", 5, 75).
link("186", "[109[0]|109[1][0]+20003|109[1][1]]").
streetOnRoute("[116|46]", "R108", 15, 110).
link("[109[0]|109[1][0]+20003|109[1][1]]", "[116|46]").
streetOnRoute("134", "R108", 60, 205).
link("[116|46]", "134").
route("R109").
streetOnRoute("131", "R109", 0, 0).
streetOnRoute("117", "R109", 30, 40).
link("131", "117").
streetOnRoute("209", "R109", 75, 90).
link("117", "209").
route("R110").
streetOnRoute("224[0]", "R110", 0, 0).
streetOnRoute("224[1]", "R110", 25, 145).
link("224[0]", "224[1]").
streetOnRoute("[181|18]", "R110", 40, 205).
link("224[1]", "[181|18]").
streetOnRoute("[17|71]", "R110", 80, 280).
link("[181|18]", "[17|71]").
streetOnRoute("67", "R110", 130, 335).
link("[17|71]", "67").
streetOnRoute("[80|127]", "R110", 140, 350).
link("67", "[80|127]").
streetOnRoute("(77[1][0]|77ab|77bc)", "R110", 155, 385).
link("[80|127]", "(77[1][0]|77ab|77bc)").
streetOnRoute("21a", "R110", 160, 390).
link("(77[1][0]|77ab|77bc)", "21a").
streetOnRoute("21b", "R110", 165, 395).
link("21a", "21b").
streetOnRoute("103", "R110", 180, 410).
link("21b", "103").
streetOnRoute("14", "R110", 225, 455).
link("103", "14").
route("R111").
streetOnRoute("15", "R111", 0, 0).
streetOnRoute("24", "R111", 40, 75).
link("15", "24").
streetOnRoute("[22|59]", "R111", 55, 90).
link("24", "[22|59]").
streetOnRoute("(53cd|53[0]|53[1][0])", "R111", 70, 150).
link("[22|59]", "(53cd|53[0]|53[1][0])").
streetOnRoute("79", "R111", 75, 170).
link("(53cd|53[0]|53[1][0])", "79").
streetOnRoute("[68|11]", "R111", 90, 190).
link("79", "[68|11]").
streetOnRoute("86", "R111", 130, 235).
link("[68|11]", "86").
route("R112").
streetOnRoute("85", "R112", 0, 0).
streetOnRoute("72[0]", "R112", 60, 60).
link("85", "72[0]").
streetOnRoute("72[1]", "R112", 105, 545).
link("72[0]", "72[1]").
streetOnRoute("69", "R112", 140, 585).
link("72[1]", "69").
streetOnRoute("161", "R112", 185, 680).
link("69", "161").
streetOnRoute("194", "R112", 205, 700).
link("161", "194").
streetOnRoute("91", "R112", 220, 715).
link("194", "91").
streetOnRoute("173", "R112", 225, 720).
link("91", "173").
streetOnRoute("62", "R112", 250, 745).
link("173", "62").
streetOnRoute("159", "R112", 270, 770).
link("62", "159").
streetOnRoute("42", "R112", 290, 825).
link("159", "42").
streetOnRoute("39", "R112", 295, 845).
link("42", "39").
streetOnRoute("35", "R112", 300, 865).
link("39", "35").
streetOnRoute("38", "R112", 310, 920).
link("35", "38").
streetOnRoute("15", "R112", 325, 980).
link("38", "15").
streetOnRoute("14", "R112", 365, 1055).
link("15", "14").
route("R113").
streetOnRoute("91", "R113", 0, 0).
streetOnRoute("186", "R113", 5, 65).
link("91", "186").
streetOnRoute("[109[0]|109[1][0]+20003|109[1][1]]", "R113", 10, 95).
link("186", "[109[0]|109[1][0]+20003|109[1][1]]").
streetOnRoute("[116|46]", "R113", 20, 130).
link("[109[0]|109[1][0]+20003|109[1][1]]", "[116|46]").
streetOnRoute("113", "R113", 65, 225).
link("[116|46]", "113").
streetOnRoute("209", "R113", 105, 275).
link("113", "209").
route("R114").
streetOnRoute("[109[0]|109[1][0]+20003|109[1][1]]", "R114", 0, 0).
streetOnRoute("[116|46]", "R114", 10, 105).
link("[109[0]|109[1][0]+20003|109[1][1]]", "[116|46]").
streetOnRoute("201", "R114", 55, 200).
link("[116|46]", "201").
streetOnRoute("201c", "R114", 105, 525).
link("201", "201c").
streetOnRoute("204a[0]", "R114", 140, 560).
link("201c", "204a[0]").
streetOnRoute("124", "R114", 190, 680).
link("204a[0]", "124").
route("R115").
streetOnRoute("58[1]", "R115", 0, 0).
streetOnRoute("197", "R115", 15, 15).
link("58[1]", "197").
streetOnRoute("[109[0]|109[1][0]+20003|109[1][1]]", "R115", 35, 105).
link("197", "[109[0]|109[1][0]+20003|109[1][1]]").
streetOnRoute("[116|46]", "R115", 45, 140).
link("[109[0]|109[1][0]+20003|109[1][1]]", "[116|46]").
streetOnRoute("201", "R115", 90, 235).
link("[116|46]", "201").
streetOnRoute("201c", "R115", 140, 560).
link("201", "201c").
streetOnRoute("204a[0]", "R115", 175, 595).
link("201c", "204a[0]").
streetOnRoute("124", "R115", 225, 715).
link("204a[0]", "124").
route("R116").
streetOnRoute("85", "R116", 0, 0).
streetOnRoute("72[0]", "R116", 60, 60).
link("85", "72[0]").
streetOnRoute("72[1]", "R116", 105, 545).
link("72[0]", "72[1]").
streetOnRoute("69", "R116", 140, 585).
link("72[1]", "69").
streetOnRoute("161", "R116", 185, 680).
link("69", "161").
streetOnRoute("194", "R116", 205, 700).
link("161", "194").
streetOnRoute("91", "R116", 220, 715).
link("194", "91").
streetOnRoute("186", "R116", 225, 720).
link("91", "186").
streetOnRoute("[109[0]|109[1][0]+20003|109[1][1]]", "R116", 230, 725).
link("186", "[109[0]|109[1][0]+20003|109[1][1]]").
streetOnRoute("[116|46]", "R116", 240, 735).
link("[109[0]|109[1][0]+20003|109[1][1]]", "[116|46]").
streetOnRoute("113", "R116", 285, 780).
link("[116|46]", "113").
streetOnRoute("209", "R116", 325, 820).
link("113", "209").
route("R117").
streetOnRoute("[87[0]|20001+87[1][0]|87[1][1]]", "R117", 0, 0).
streetOnRoute("m90", "R117", 5, 5).
link("[87[0]|20001+87[1][0]|87[1][1]]", "m90").
streetOnRoute("171", "R117", 10, 20).
link("m90", "171").
streetOnRoute("161", "R117", 55, 65).
link("171", "161").
streetOnRoute("122", "R117", 75, 85).
link("161", "122").
streetOnRoute("1b", "R117", 95, 2055).
link("122", "1b").
streetOnRoute("1", "R117", 130, 2895).
link("1b", "1").
streetOnRoute("204a[0]", "R117", 165, 2930).
link("1", "204a[0]").
streetOnRoute("204b[0]", "R117", 215, 3050).
link("204a[0]", "204b[0]").
streetOnRoute("54", "R117", 220, 3055).
link("204b[0]", "54").
route("R118").
streetOnRoute("[89[0]|20002+89[1][0]|89[1][1]]", "R118", 0, 0).
streetOnRoute("91", "R118", 15, 135).
link("[89[0]|20002+89[1][0]|89[1][1]]", "91").
streetOnRoute("186", "R118", 20, 155).
link("91", "186").
streetOnRoute("[109[0]|109[1][0]+20003|109[1][1]]", "R118", 25, 185).
link("186", "[109[0]|109[1][0]+20003|109[1][1]]").
streetOnRoute("[116|46]", "R118", 35, 220).
link("[109[0]|109[1][0]+20003|109[1][1]]", "[116|46]").
streetOnRoute("134", "R118", 80, 315).
link("[116|46]", "134").
route("R119").
streetOnRoute("224[0]", "R119", 0, 0).
streetOnRoute("224[1]", "R119", 25, 145).
link("224[0]", "224[1]").
streetOnRoute("[181|18]", "R119", 40, 205).
link("224[1]", "[181|18]").
streetOnRoute("69", "R119", 80, 280).
link("[181|18]", "69").
streetOnRoute("161", "R119", 125, 375).
link("69", "161").
streetOnRoute("122", "R119", 145, 395).
link("161", "122").
streetOnRoute("[3|2]", "R119", 165, 425).
link("122", "[3|2]").
streetOnRoute("[202|34]", "R119", 200, 460).
link("[3|2]", "[202|34]").
streetOnRoute("134", "R119", 250, 510).
link("[202|34]", "134").
route("R120").
streetOnRoute("186", "R120", 0, 0).
streetOnRoute("[109[0]|109[1][0]+20003|109[1][1]]", "R120", 5, 75).
link("186", "[109[0]|109[1][0]+20003|109[1][1]]").
streetOnRoute("[116|46]", "R120", 15, 110).
link("[109[0]|109[1][0]+20003|109[1][1]]", "[116|46]").
streetOnRoute("113", "R120", 60, 205).
link("[116|46]", "113").
streetOnRoute("209", "R120", 100, 255).
link("113", "209").
route("R121").
streetOnRoute("[17|71]", "R121", 0, 0).
streetOnRoute("86", "R121", 50, 55).
link("[17|71]", "86").
route("R122").
streetOnRoute("194", "R122", 0, 0).
streetOnRoute("91", "R122", 15, 135).
link("194", "91").
streetOnRoute("186", "R122", 20, 155).
link("91", "186").
streetOnRoute("[109[0]|109[1][0]+20003|109[1][1]]", "R122", 25, 185).
link("186", "[109[0]|109[1][0]+20003|109[1][1]]").
streetOnRoute("120", "R122", 35, 220).
link("[109[0]|109[1][0]+20003|109[1][1]]", "120").
streetOnRoute("65", "R122", 50, 240).
link("120", "65").
streetOnRoute("[200|60]", "R122", 60, 285).
link("65", "[200|60]").
route("R123").
streetOnRoute("57[1]", "R123", 0, 50).
streetOnRoute("62", "R123", 5, 95).
link("57[1]", "62").
streetOnRoute("159", "R123", 25, 185).
link("62", "159").
streetOnRoute("42", "R123", 45, 290).
link("159", "42").
streetOnRoute("39", "R123", 50, 310).
link("42", "39").
streetOnRoute("35", "R123", 55, 330).
link("39", "35").
streetOnRoute("38", "R123", 65, 385).
link("35", "38").
streetOnRoute("15", "R123", 80, 445).
link("38", "15").
streetOnRoute("14", "R123", 120, 520).
link("15", "14").
route("R124").
streetOnRoute("79", "R124", 0, 0).
streetOnRoute("[68|11]", "R124", 15, 20).
link("79", "[68|11]").
streetOnRoute("84", "R124", 55, 65).
link("[68|11]", "84").
streetOnRoute("180", "R124", 70, 80).
link("84", "180").
route("R125").
streetOnRoute("42", "R125", 0, 5).
streetOnRoute("39", "R125", 5, 85).
link("42", "39").
streetOnRoute("35", "R125", 10, 120).
link("39", "35").
streetOnRoute("38", "R125", 20, 175).
link("35", "38").
streetOnRoute("50", "R125", 35, 235).
link("38", "50").
streetOnRoute("19", "R125", 45, 265).
link("50", "19").
streetOnRoute("[22|59]", "R125", 55, 300).
link("19", "[22|59]").
streetOnRoute("(53cd|53[0]|53[1][0])", "R125", 70, 320).
link("[22|59]", "(53cd|53[0]|53[1][0])").
streetOnRoute("79", "R125", 75, 340).
link("(53cd|53[0]|53[1][0])", "79").
streetOnRoute("[68|11]", "R125", 90, 360).
link("79", "[68|11]").
streetOnRoute("84", "R125", 130, 405).
link("[68|11]", "84").
streetOnRoute("180", "R125", 145, 420).
link("84", "180").
route("R126").
streetOnRoute("69", "R126", 0, 0).
streetOnRoute("161", "R126", 45, 95).
link("69", "161").
streetOnRoute("194", "R126", 65, 115).
link("161", "194").
streetOnRoute("91", "R126", 80, 130).
link("194", "91").
streetOnRoute("186", "R126", 85, 150).
link("91", "186").
streetOnRoute("[109[0]|109[1][0]+20003|109[1][1]]", "R126", 90, 160).
link("186", "[109[0]|109[1][0]+20003|109[1][1]]").
streetOnRoute("[116|46]", "R126", 100, 170).
link("[109[0]|109[1][0]+20003|109[1][1]]", "[116|46]").
streetOnRoute("201", "R126", 145, 235).
link("[116|46]", "201").
streetOnRoute("201c", "R126", 195, 580).
link("201", "201c").
streetOnRoute("204a[0]", "R126", 230, 615).
link("201c", "204a[0]").
streetOnRoute("204b[0]", "R126", 280, 1425).
link("204a[0]", "204b[0]").
streetOnRoute("204[1][0]", "R126", 285, 1440).
link("204b[0]", "204[1][0]").
streetOnRoute("204[1][1]", "R126", 320, 1475).
link("204[1][0]", "204[1][1]").
route("R127").
streetOnRoute("57[0]", "R127", 0, 0).
streetOnRoute("57[1]", "R127", 15, 105).
link("57[0]", "57[1]").
streetOnRoute("62", "R127", 20, 120).
link("57[1]", "62").
streetOnRoute("159", "R127", 40, 210).
link("62", "159").
streetOnRoute("42", "R127", 60, 315).
link("159", "42").
streetOnRoute("39", "R127", 65, 335).
link("42", "39").
streetOnRoute("35", "R127", 70, 355).
link("39", "35").
streetOnRoute("38", "R127", 80, 410).
link("35", "38").
streetOnRoute("50", "R127", 95, 470).
link("38", "50").
streetOnRoute("19", "R127", 105, 500).
link("50", "19").
streetOnRoute("[22|59]", "R127", 115, 535).
link("19", "[22|59]").
streetOnRoute("(53cd|53[0]|53[1][0])", "R127", 130, 555).
link("[22|59]", "(53cd|53[0]|53[1][0])").
streetOnRoute("79", "R127", 135, 575).
link("(53cd|53[0]|53[1][0])", "79").
streetOnRoute("[68|11]", "R127", 150, 595).
link("79", "[68|11]").
streetOnRoute("86", "R127", 190, 640).
link("[68|11]", "86").
route("R128").
streetOnRoute("62", "R128", 0, 0).
streetOnRoute("159", "R128", 20, 125).
link("62", "159").
streetOnRoute("42", "R128", 40, 230).
link("159", "42").
streetOnRoute("39", "R128", 45, 250).
link("42", "39").
streetOnRoute("35", "R128", 50, 270).
link("39", "35").
streetOnRoute("38", "R128", 60, 325).
link("35", "38").
streetOnRoute("50", "R128", 75, 385).
link("38", "50").
streetOnRoute("19", "R128", 85, 415).
link("50", "19").
streetOnRoute("[22|59]", "R128", 95, 450).
link("19", "[22|59]").
streetOnRoute("(53cd|53[0])", "R128", 110, 470).
link("[22|59]", "(53cd|53[0])").
streetOnRoute("78[1][1]", "R128", 115, 480).
link("(53cd|53[0])", "78[1][1]").
streetOnRoute("[189[0]|189[1][0]+20000|189[1][1]]", "R128", 125, 490).
link("78[1][1]", "[189[0]|189[1][0]+20000|189[1][1]]").
streetOnRoute("191", "R128", 175, 540).
link("[189[0]|189[1][0]+20000|189[1][1]]", "191").
streetOnRoute("[17|71]", "R128", 220, 585).
link("191", "[17|71]").
streetOnRoute("84", "R128", 270, 640).
link("[17|71]", "84").
streetOnRoute("180", "R128", 285, 655).
link("84", "180").
route("R129").
streetOnRoute("39", "R129", 0, 15).
streetOnRoute("35", "R129", 5, 115).
link("39", "35").
streetOnRoute("38", "R129", 15, 170).
link("35", "38").
streetOnRoute("50", "R129", 30, 230).
link("38", "50").
streetOnRoute("19", "R129", 40, 260).
link("50", "19").
streetOnRoute("[22|59]", "R129", 50, 295).
link("19", "[22|59]").
streetOnRoute("(53cd|53[0]|53[1][0]|53[1][1][0]|77[1][0])", "R129", 65, 315).
link("[22|59]", "(53cd|53[0]|53[1][0]|53[1][1][0]|77[1][0])").
streetOnRoute("77[1][1]", "R129", 70, 320).
link("(53cd|53[0]|53[1][0]|53[1][1][0]|77[1][0])", "77[1][1]").
route("R130").
streetOnRoute("42", "R130", 0, 5).
streetOnRoute("39", "R130", 5, 85).
link("42", "39").
streetOnRoute("35", "R130", 10, 120).
link("39", "35").
streetOnRoute("38", "R130", 20, 175).
link("35", "38").
streetOnRoute("15", "R130", 35, 235).
link("38", "15").
streetOnRoute("14", "R130", 75, 310).
link("15", "14").
route("R131").
streetOnRoute("85", "R131", 0, 0).
streetOnRoute("72[0]", "R131", 60, 60).
link("85", "72[0]").
streetOnRoute("72[1]", "R131", 105, 545).
link("72[0]", "72[1]").
streetOnRoute("69", "R131", 140, 585).
link("72[1]", "69").
streetOnRoute("161", "R131", 185, 680).
link("69", "161").
streetOnRoute("194", "R131", 205, 700).
link("161", "194").
streetOnRoute("91", "R131", 220, 715).
link("194", "91").
streetOnRoute("186", "R131", 225, 720).
link("91", "186").
streetOnRoute("[109[0]|109[1][0]+20003|109[1][1]]", "R131", 230, 725).
link("186", "[109[0]|109[1][0]+20003|109[1][1]]").
streetOnRoute("120", "R131", 240, 735).
link("[109[0]|109[1][0]+20003|109[1][1]]", "120").
streetOnRoute("65", "R131", 255, 750).
link("120", "65").
streetOnRoute("[200|60]", "R131", 265, 760).
link("65", "[200|60]").
route("R132").
streetOnRoute("57[0]", "R132", 0, 0).
streetOnRoute("57[1]", "R132", 15, 105).
link("57[0]", "57[1]").
streetOnRoute("62", "R132", 20, 120).
link("57[1]", "62").
streetOnRoute("159", "R132", 40, 210).
link("62", "159").
streetOnRoute("42", "R132", 60, 315).
link("159", "42").
streetOnRoute("39", "R132", 65, 335).
link("42", "39").
streetOnRoute("35", "R132", 70, 355).
link("39", "35").
streetOnRoute("38", "R132", 80, 410).
link("35", "38").
streetOnRoute("50", "R132", 95, 470).
link("38", "50").
streetOnRoute("19", "R132", 105, 500).
link("50", "19").
streetOnRoute("[22|59]", "R132", 115, 535).
link("19", "[22|59]").
streetOnRoute("(53cd|53[0]|53[1][0]|53[1][1][0]|77[1][0])", "R132", 130, 555).
link("[22|59]", "(53cd|53[0]|53[1][0]|53[1][1][0]|77[1][0])").
streetOnRoute("77[1][1]", "R132", 135, 560).
link("(53cd|53[0]|53[1][0]|53[1][1][0]|77[1][0])", "77[1][1]").
route("R133").
streetOnRoute("201c", "R133", 0, 50).
streetOnRoute("204a[0]", "R133", 35, 155).
link("201c", "204a[0]").
streetOnRoute("204b[0]", "R133", 85, 1720).
link("204a[0]", "204b[0]").
streetOnRoute("204[1][0]", "R133", 90, 1735).
link("204b[0]", "204[1][0]").
streetOnRoute("204[1][1]", "R133", 125, 1770).
link("204[1][0]", "204[1][1]").
route("R134").
streetOnRoute("161", "R134", 0, 0).
streetOnRoute("122", "R134", 20, 120).
link("161", "122").
streetOnRoute("1b", "R134", 40, 2315).
link("122", "1b").
streetOnRoute("1", "R134", 75, 3155).
link("1b", "1").
streetOnRoute("204a[0]", "R134", 110, 3190).
link("1", "204a[0]").
streetOnRoute("124", "R134", 160, 3310).
link("204a[0]", "124").
route("R135").
streetOnRoute("131", "R135", 0, 0).
streetOnRoute("65", "R135", 30, 75).
link("131", "65").
streetOnRoute("197", "R135", 40, 120).
link("65", "197").
streetOnRoute("[109[0]|109[1][0]+20003|109[1][1]]", "R135", 60, 140).
link("197", "[109[0]|109[1][0]+20003|109[1][1]]").
streetOnRoute("[116|46]", "R135", 70, 175).
link("[109[0]|109[1][0]+20003|109[1][1]]", "[116|46]").
streetOnRoute("113", "R135", 115, 270).
link("[116|46]", "113").
streetOnRoute("209", "R135", 155, 320).
link("113", "209").
route("R136").
streetOnRoute("173", "R136", 0, 0).
streetOnRoute("58[0]", "R136", 25, 25).
link("173", "58[0]").
streetOnRoute("58[1]", "R136", 30, 35).
link("58[0]", "58[1]").
streetOnRoute("[200|60]", "R136", 45, 50).
link("58[1]", "[200|60]").
route("R137").
streetOnRoute("72[0]", "R137", 0, 0).
streetOnRoute("72[1]", "R137", 45, 485).
link("72[0]", "72[1]").
streetOnRoute("69", "R137", 80, 525).
link("72[1]", "69").
streetOnRoute("161", "R137", 125, 620).
link("69", "161").
streetOnRoute("122", "R137", 145, 640).
link("161", "122").
streetOnRoute("1b", "R137", 165, 1320).
link("122", "1b").
streetOnRoute("1", "R137", 200, 2160).
link("1b", "1").
streetOnRoute("204a[0]", "R137", 235, 2195).
link("1", "204a[0]").
streetOnRoute("204b[0]", "R137", 285, 2315).
link("204a[0]", "204b[0]").
streetOnRoute("54", "R137", 290, 2320).
link("204b[0]", "54").
route("R138").
streetOnRoute("[89[0]|20002+89[1][0]|89[1][1]]", "R138", 0, 0).
streetOnRoute("91", "R138", 15, 135).
link("[89[0]|20002+89[1][0]|89[1][1]]", "91").
streetOnRoute("186", "R138", 20, 155).
link("91", "186").
streetOnRoute("[109[0]|109[1][0]+20003|109[1][1]]", "R138", 25, 185).
link("186", "[109[0]|109[1][0]+20003|109[1][1]]").
streetOnRoute("[116|46]", "R138", 35, 220).
link("[109[0]|109[1][0]+20003|109[1][1]]", "[116|46]").
streetOnRoute("201", "R138", 80, 315).
link("[116|46]", "201").
streetOnRoute("201c", "R138", 130, 550).
link("201", "201c").
streetOnRoute("204a[0]", "R138", 165, 585).
link("201c", "204a[0]").
streetOnRoute("204b[0]", "R138", 215, 705).
link("204a[0]", "204b[0]").
streetOnRoute("54", "R138", 220, 710).
link("204b[0]", "54").
destination("Vittorio_Veneto_2_518", "77[1][1]").
destination("Costa_50_1328", "[200|60]").
destination("Costa_50_1283", "[200|60]").
destination("Vittorio_Veneto_2_497", "77[1][1]").
destination("Togliatti_11_691", "124").
destination("Costa_50_1372", "[200|60]").
destination("Vittorio_Veneto_1_529", "86").
destination("Vittorio_Veneto_1_543", "86").
destination("Togliatti_10_690", "204[1][1]").
destination("Togliatti_10_382", "204[1][1]").
destination("Vittorio_Veneto_2_479", "77[1][1]").
destination("Audinot_3_100", "14").
destination("Vittorio_Veneto_2_492", "77[1][1]").
destination("Audinot_3_123", "14").
destination("Vittorio_Veneto_10_257", "204[1][1]").
destination("Vittorio_Veneto_1_514", "86").
destination("Vittorio_Veneto_32_482", "14").
destination("XXI_Aprile_93_172", "54").
destination("Pepoli_2_1721", "77[1][1]").
destination("Vittorio_Veneto_1_579", "86").
destination("Costa_11_1214", "124").
destination("Pepoli_1_1761", "86").
destination("Costa_200_1240", "204[1][1]").
destination("Togliatti_9_650", "54").
destination("Vittorio_Veneto_2_552", "77[1][1]").
destination("Vittorio_Veneto_10_398", "204[1][1]").
destination("Audinot_12_142", "180").
destination("Togliatti_10_475", "204[1][1]").
destination("Audinot_10_135", "204[1][1]").
destination("Togliatti_10_374", "204[1][1]").
destination("Vittorio_Veneto_2_513", "77[1][1]").
destination("Pepoli_1_1676", "86").
destination("Audinot_10_97", "204[1][1]").
destination("Togliatti_9_357", "54").
destination("XXI_Aprile_9_595", "54").
destination("Vittorio_Veneto_10_499", "204[1][1]").
destination("Pepoli_12_1903", "180").
destination("Pepoli_3_2077", "10").
destination("Togliatti_9_377", "54").
destination("Vittorio_Veneto_10_536", "204[1][1]").
destination("Togliatti_10_547", "204[1][1]").
destination("Pepoli_3_1731", "14").
destination("Togliatti_10_510", "204[1][1]").
destination("Pepoli_3_2092", "10").
destination("Togliatti_10_649", "204[1][1]").
destination("Togliatti_9_437", "54").
destination("Costa_50_1314", "[200|60]").
destination("Togliatti_10_592", "204[1][1]").
destination("Turati_10_23", "204[1][1]").
destination("Vittorio_Veneto_1_566", "86").
destination("XXI_Aprile_94_898", "54").
destination("Pepoli_2_1713", "77[1][1]").
destination("Costa_200_1167", "204[1][1]").
destination("Pepoli_12_1858", "180").
destination("Togliatti_10_578", "204[1][1]").
destination("Togliatti_10_436", "204[1][1]").
destination("Togliatti_3_2098", "10").
destination("Togliatti_9_591", "54").
destination("Vittorio_Veneto_2_582", "77[1][1]").
destination("Togliatti_10_430", "204[1][1]").
destination("Togliatti_10_419", "204[1][1]").
destination("Vittorio_Veneto_1_586", "86").
destination("Togliatti_9_367", "54").
destination("Togliatti_71_706", "209").
destination("Togliatti_10_356", "204[1][1]").
destination("Togliatti_10_597", "204[1][1]").
destination("Vittorio_Veneto_2_544", "77[1][1]").
destination("Audinot_12_119", "180").
destination("Audinot_12_126", "180").
destination("Togliatti_10_350", "204[1][1]").
destination("Costa_200_1118", "204[1][1]").
destination("Costa_700_1317", "209").
destination("Audinot_3_152", "14").
destination("Audinot_3_133", "14").
destination("Togliatti_10_682", "204[1][1]").
destination("Pepoli_1_1996", "86").
destination("Vittorio_Veneto_10_589", "204[1][1]").
destination("Audinot_7_141", "209").
destination("Costa_50_1349", "[200|60]").
destination("Togliatti_10_537", "204[1][1]").
destination("XXI_Aprile_93_287", "54").
destination("Togliatti_10_413", "204[1][1]").
destination("Vittorio_Veneto_10_417", "204[1][1]").
destination("Togliatti_10_577", "204[1][1]").
destination("XXI_Aprile_94_661", "54").
destination("Pepoli_3_1826", "14").
destination("Togliatti_10_677", "204[1][1]").
destination("Costa_50_1369", "[200|60]").
destination("Togliatti_10_580", "204[1][1]").
destination("Vittorio_Veneto_2_592", "77[1][1]").
destination("Pepoli_3_1891", "14").
destination("Vittorio_Veneto_10_562", "204[1][1]").
destination("XXI_Aprile_102_180", "204[1][1]").
destination("Togliatti_11_681", "124").
destination("Togliatti_10_720", "204[1][1]").
destination("Togliatti_10_657", "204[1][1]").
destination("Audinot_3_114", "14").
destination("XXI_Aprile_104_961", "204[1][1]").
destination("Audinot_10_90", "204[1][1]").
destination("Vittorio_Veneto_2_575", "77[1][1]").
destination("XXI_Aprile_92_616", "54").
destination("Vittorio_Veneto_2_505", "77[1][1]").
destination("Togliatti_9_561", "54").
destination("Vittorio_Veneto_10_322", "204[1][1]").
destination("Togliatti_10_585", "204[1][1]").
destination("Togliatti_10_635", "204[1][1]").
destination("Togliatti_10_499", "204[1][1]").
destination("Costa_70_1124", "209").
destination("XXI_Aprile_102_588", "204[1][1]").
destination("XXI_Aprile_9_981", "54").
destination("Silvani_1_1408", "86").
destination("Togliatti_10_446", "204[1][1]").
destination("Togliatti_10_362", "204[1][1]").
destination("Togliatti_10_366", "204[1][1]").
destination("XXI_Aprile_103_801", "204[1][1]").
destination("Vittorio_Veneto_10_481", "204[1][1]").
destination("Togliatti_9_665", "54").
destination("XXI_Aprile_93_615", "54").
destination("Pepoli_3_1772", "14").
destination("XXI_Aprile_93_154", "54").
destination("Vittorio_Veneto_10_577", "204[1][1]").
destination("Togliatti_10_525", "204[1][1]").
destination("XXI_Aprile_94_863", "54").
destination("Togliatti_10_467", "204[1][1]").
destination("Togliatti_10_609", "204[1][1]").
destination("Togliatti_10_652", "204[1][1]").
destination("Vittorio_Veneto_10_510", "204[1][1]").
destination("Vittorio_Veneto_1_591", "86").
destination("Costa_200_1291", "204[1][1]").
destination("Audinot_3_107", "14").
destination("XXI_Aprile_94_787", "54").
destination("Audinot_10_99", "204[1][1]").
destination("Audinot_9_109", "54").
destination("XXI_Aprile_7_830", "209").
destination("Togliatti_10_549", "204[1][1]").
destination("Vittorio_Veneto_10_494", "204[1][1]").
destination("Pepoli_12_1877", "180").
destination("Togliatti_9_527", "54").
destination("Costa_200_1357", "204[1][1]").
destination("Audinot_12_149", "180").
destination("Costa_200_543", "204[1][1]").
destination("Vittorio_Veneto_1_532", "86").
destination("Vittorio_Veneto_1_531", "86").
destination("Vittorio_Veneto_1_584", "86").
destination("XXI_Aprile_93_950", "54").
destination("Togliatti_10_601", "204[1][1]").
destination("Vittorio_Veneto_10_387", "204[1][1]").
destination("Costa_50_1318", "[200|60]").
destination("Audinot_3_144", "14").
destination("Pepoli_3_1740", "14").
destination("Vittorio_Veneto_10_444", "204[1][1]").
destination("Togliatti_3_2477", "14").
destination("Audinot_7_116", "209").
destination("Vittorio_Veneto_2_563", "77[1][1]").
destination("Togliatti_10_531", "204[1][1]").
destination("Costa_200_762", "204[1][1]").
destination("Pepoli_12_1752", "180").
destination("Togliatti_10_584", "204[1][1]").
destination("XXI_Aprile_94_880", "54").
destination("Costa_70_1077", "209").
destination("Togliatti_3_2110", "10").
destination("Costa_91_1213", "54").
destination("Audinot_12_104", "180").
destination("Togliatti_10_310", "204[1][1]").
destination("Togliatti_9_678", "54").
destination("Togliatti_10_435", "204[1][1]").
destination("Togliatti_3_1374", "10").
destination("Pepoli_2_2001", "77[1][1]").
destination("Vittorio_Veneto_2_587", "77[1][1]").
destination("Vittorio_Veneto_1_551", "86").
destination("Audinot_3_148", "10").
destination("Audinot_3_130", "14").
destination("Pepoli_3_1727", "14").
destination("Audinot_9_122", "54").
destination("XXI_Aprile_102_869", "204[1][1]").
destination("Togliatti_10_594", "204[1][1]").
destination("Vittorio_Veneto_1_509", "86").
destination("Vittorio_Veneto_2_557", "77[1][1]").
destination("Audinot_10_102", "204[1][1]").
destination("Pepoli_3_1847", "14").
destination("Vittorio_Veneto_2_548", "77[1][1]").
destination("XXI_Aprile_94_1001", "54").
destination("Togliatti_10_648", "204[1][1]").
destination("Vittorio_Veneto_73_460", "209").
destination("Togliatti_9_621", "54").
destination("XXI_Aprile_7_957", "209").
destination("Pepoli_3_1911", "14").
destination("XXI_Aprile_94_841", "54").
destination("XXI_Aprile_94_158", "54").
destination("Audinot_10_103", "204[1][1]").
destination("Togliatti_3_2420", "14").
destination("Togliatti_5_588", "[200|60]").
destination("Pepoli_3_2002", "14").
destination("XXI_Aprile_93_896", "54").
destination("Pepoli_3_2006", "14").
destination("Audinot_12_106", "180").
destination("Togliatti_10_662", "204[1][1]").
destination("Costa_200_813", "204[1][1]").
destination("XXI_Aprile_94_174", "54").
destination("Togliatti_11_658", "124").
destination("XXI_Aprile_102_622", "204[1][1]").
destination("Vittorio_Veneto_10_463", "204[1][1]").
destination("XXI_Aprile_94_693", "54").
destination("Costa_50_1268", "[200|60]").
destination("Costa_70_1350", "209").
destination("XXI_Aprile_94_899", "54").
destination("Costa_200_1216", "204[1][1]").
destination("Togliatti_10_522", "204[1][1]").
destination("Audinot_12_101", "180").
destination("XXI_Aprile_102_566", "204[1][1]").
destination("Vittorio_Veneto_73_588", "209").
destination("Vittorio_Veneto_1_550", "86").
destination("Pepoli_12_1792", "180").
destination("Togliatti_10_589", "204[1][1]").
destination("Pepoli_12_1949", "180").
destination("Togliatti_3_2475", "14").
destination("Togliatti_10_414", "204[1][1]").
destination("Vittorio_Veneto_82_504", "134").
destination("Togliatti_10_370", "204[1][1]").
destination("Togliatti_10_604", "204[1][1]").
destination("XXI_Aprile_9_857", "54").
destination("Costa_70_1342", "209").
destination("Togliatti_10_282", "204[1][1]").
destination("Togliatti_10_664", "204[1][1]").
destination("Togliatti_10_606", "204[1][1]").
destination("Vittorio_Veneto_10_503", "204[1][1]").
destination("Vittorio_Veneto_1_506", "86").
destination("Audinot_5_125", "[200|60]").
destination("Pepoli_3_1926", "14").
destination("Costa_50_1370", "[200|60]").
destination("XXI_Aprile_9_532", "54").
destination("Togliatti_10_721", "204[1][1]").
destination("Audinot_7_150", "209").
destination("Togliatti_10_616", "204[1][1]").
destination("Costa_70_1313", "209").
destination("Pepoli_12_1663", "180").
destination("Togliatti_10_378", "204[1][1]").
destination("Costa_200_1224", "204[1][1]").
destination("Togliatti_10_478", "204[1][1]").
destination("Togliatti_5_704", "[200|60]").
destination("Costa_200_978", "204[1][1]").
destination("Togliatti_10_628", "204[1][1]").
destination("Vittorio_Veneto_2_593", "77[1][1]").
destination("Audinot_3_129", "14").
destination("Costa_200_1327", "204[1][1]").
destination("Costa_200_1257", "204[1][1]").
destination("Costa_70_1183", "209").
destination("Togliatti_71_708", "209").
destination("Audinot_12_145", "180").
destination("Pepoli_12_1775", "180").
destination("Togliatti_10_552", "204[1][1]").
destination("Vittorio_Veneto_10_448", "204[1][1]").
destination("Togliatti_10_555", "204[1][1]").
destination("XXI_Aprile_93_310", "54").
destination("Togliatti_10_713", "204[1][1]").
destination("Vittorio_Veneto_10_489", "204[1][1]").
destination("Audinot_5_124", "[200|60]").
destination("Togliatti_10_641", "204[1][1]").
destination("Vittorio_Veneto_10_367", "204[1][1]").
destination("Togliatti_9_703", "54").
destination("Togliatti_10_634", "204[1][1]").
destination("Togliatti_9_575", "54").
destination("Costa_200_1362", "204[1][1]").
destination("Costa_70_1330", "209").
destination("Costa_50_1364", "[200|60]").
destination("Togliatti_3_2179", "10").
destination("Togliatti_10_488", "204[1][1]").
destination("Togliatti_11_506", "124").
destination("Togliatti_71_582", "209").
destination("Vittorio_Veneto_2_486", "77[1][1]").
destination("XXI_Aprile_93_189", "54").
destination("XXI_Aprile_102_906", "204[1][1]").
destination("Togliatti_10_263", "204[1][1]").
destination("Pepoli_2_1797", "77[1][1]").
destination("Costa_50_1284", "[200|60]").
destination("Togliatti_9_599", "54").
destination("Togliatti_3_2093", "10").
destination("Audinot_3_91", "14").
destination("Togliatti_10_581", "204[1][1]").
destination("Togliatti_10_509", "204[1][1]").
destination("Pepoli_2_1855", "77[1][1]").
destination("Togliatti_10_614", "204[1][1]").
destination("Vittorio_Veneto_2_477", "77[1][1]").
destination("Vittorio_Veneto_2_516", "77[1][1]").
destination("XXI_Aprile_92_213", "54").
destination("Costa_200_197", "204[1][1]").
destination("Costa_70_1373", "209").
destination("Audinot_10_111", "204[1][1]").
destination("Vittorio_Veneto_2_573", "77[1][1]").
destination("Audinot_3_138", "10").
destination("Audinot_9_92", "54").
destination("Costa_700_1326", "209").
destination("Vittorio_Veneto_10_215", "204[1][1]").
destination("Audinot_3_143", "10").
destination("Togliatti_10_563", "204[1][1]").
destination("Togliatti_10_523", "204[1][1]").
destination("Audinot_3_94", "14").
destination("XXI_Aprile_113_933", "124").
destination("Costa_200_1205", "204[1][1]").
destination("Togliatti_10_483", "204[1][1]").
destination("Togliatti_10_596", "204[1][1]").
destination("Costa_91_1261", "54").
destination("Togliatti_10_705", "204[1][1]").
destination("Vittorio_Veneto_10_556", "204[1][1]").
destination("Togliatti_10_393", "204[1][1]").
destination("Pepoli_12_1919", "180").
destination("Silvani_1_1340", "86").
destination("Costa_70_1203", "209").
destination("Vittorio_Veneto_73_466", "209").
destination("Silvani_3_1475", "14").
destination("Togliatti_10_476", "204[1][1]").
destination("Pepoli_3_1777", "14").
destination("Audinot_3_127", "14").
destination("Costa_200_411", "204[1][1]").
destination("Pepoli_2_1785", "77[1][1]").
destination("Togliatti_80_674", "134").
destination("Togliatti_3_766", "10").
destination("Vittorio_Veneto_2_476", "77[1][1]").
destination("Audinot_5_134", "[200|60]").
destination("Audinot_10_139", "204[1][1]").
destination("Togliatti_9_481", "54").
destination("Audinot_12_132", "180").
destination("Togliatti_9_286", "54").
destination("Togliatti_9_550", "54").
destination("XXI_Aprile_93_838", "54").
destination("Costa_8_1354", "134").
destination("Audinot_3_88", "14").
destination("XXI_Aprile_102_713", "204[1][1]").
destination("XXI_Aprile_7_1009", "209").
destination("Togliatti_10_376", "204[1][1]").
destination("Togliatti_10_458", "204[1][1]").
destination("Vittorio_Veneto_2_519", "77[1][1]").
destination("Pepoli_3_2046", "10").
destination("Audinot_12_108", "180").
destination("XXI_Aprile_102_627", "204[1][1]").
destination("Silvani_1_1234", "86").
destination("Togliatti_10_671", "204[1][1]").
destination("Audinot_12_105", "180").
destination("XXI_Aprile_92_949", "54").
destination("Audinot_7_131", "209").
destination("Vittorio_Veneto_3_568", "14").
destination("Vittorio_Veneto_2_490", "77[1][1]").
destination("Silvani_1_1415", "86").
destination("XXI_Aprile_94_630", "54").
destination("Costa_70_1053", "209").
destination("Vittorio_Veneto_2_501", "77[1][1]").
destination("Togliatti_9_482", "54").
destination("Togliatti_10_558", "204[1][1]").
destination("Costa_200_1287", "204[1][1]").
destination("Vittorio_Veneto_10_431", "204[1][1]").
destination("Silvani_1_1358", "86").
destination("Togliatti_10_560", "204[1][1]").
destination("Togliatti_9_390", "54").
destination("Costa_70_1149", "209").
destination("Vittorio_Veneto_2_520", "77[1][1]").
destination("Togliatti_3_2344", "14").
destination("Togliatti_10_477", "204[1][1]").
destination("Vittorio_Veneto_73_559", "209").
destination("Togliatti_10_618", "204[1][1]").
destination("Costa_70_1368", "209").
destination("Silvani_3_1462", "14").
destination("Pepoli_3_2087", "10").
destination("Togliatti_71_709", "209").
destination("Togliatti_10_663", "204[1][1]").
destination("Togliatti_10_602", "204[1][1]").
destination("Togliatti_11_611", "124").
destination("Vittorio_Veneto_10_427", "204[1][1]").
destination("Vittorio_Veneto_2_554", "77[1][1]").
destination("Vittorio_Veneto_10_488", "204[1][1]").
destination("Togliatti_10_564", "204[1][1]").
destination("Togliatti_3_2129", "10").
destination("Togliatti_10_463", "204[1][1]").
destination("Togliatti_10_688", "204[1][1]").
destination("Togliatti_3_2120", "10").
destination("Togliatti_10_615", "204[1][1]").
destination("Togliatti_10_695", "204[1][1]").
destination("Vittorio_Veneto_1_541", "86").
destination("Togliatti_10_595", "204[1][1]").
destination("Audinot_12_147", "180").
destination("Togliatti_10_711", "204[1][1]").
destination("Togliatti_9_646", "54").
destination("Silvani_3_1498", "14").
destination("Silvani_1_1315", "86").
destination("Togliatti_11_697", "124").
destination("Togliatti_10_423", "204[1][1]").
destination("Togliatti_10_518", "204[1][1]").
destination("Costa_200_1262", "204[1][1]").
destination("Vittorio_Veneto_2_585", "77[1][1]").
destination("Audinot_3_93", "14").
destination("Audinot_3_146", "14").
destination("Togliatti_10_519", "204[1][1]").
destination("Silvani_3_1480", "14").
destination("XXI_Aprile_7_831", "209").
destination("Togliatti_10_626", "204[1][1]").
destination("Togliatti_71_660", "209").
destination("Togliatti_10_497", "204[1][1]").
destination("Togliatti_11_489", "124").
destination("Togliatti_9_675", "54").
destination("Togliatti_10_371", "204[1][1]").
destination("Audinot_3_121", "14").
destination("Togliatti_3_2474", "14").
destination("Vittorio_Veneto_1_547", "86").
destination("Pepoli_3_1823", "14").
destination("Togliatti_9_466", "54").
destination("XXI_Aprile_9_150", "54").
destination("Togliatti_80_669", "134").
destination("Costa_200_851", "204[1][1]").
destination("Togliatti_9_247", "54").
destination("Vittorio_Veneto_10_413", "204[1][1]").
destination("Vittorio_Veneto_2_526", "77[1][1]").
destination("Togliatti_10_598", "204[1][1]").
destination("Vittorio_Veneto_82_595", "134").
destination("Costa_700_1366", "209").
destination("Audinot_10_120", "204[1][1]").
destination("Vittorio_Veneto_1_498", "86").
destination("XXI_Aprile_94_985", "54").
destination("Costa_70_1338", "209").
destination("Costa_50_1241", "[200|60]").
destination("Togliatti_10_673", "204[1][1]").
destination("Costa_91_273", "54").
destination("Togliatti_10_566", "204[1][1]").
destination("Togliatti_3_2373", "14").
destination("Pepoli_3_1906", "14").
destination("Togliatti_10_544", "204[1][1]").
destination("Costa_200_1235", "204[1][1]").
destination("XXI_Aprile_7_1002", "209").
destination("Togliatti_10_670", "204[1][1]").
destination("Pepoli_3_1718", "14").
destination("Pepoli_3_2074", "14").
destination("Pepoli_3_2039", "10").
destination("Audinot_7_113", "209").
destination("XXI_Aprile_102_851", "204[1][1]").
destination("Costa_200_1281", "204[1][1]").
destination("Vittorio_Veneto_2_534", "77[1][1]").
destination("XXI_Aprile_92_878", "54").
destination("Togliatti_11_686", "124").
destination("Togliatti_3_1768", "10").
destination("Pepoli_12_1689", "180").
destination("Pepoli_3_1810", "14").
destination("Costa_700_1311", "209").
destination("Togliatti_10_368", "204[1][1]").
destination("Togliatti_9_273", "54").
destination("XXI_Aprile_103_608", "204[1][1]").
destination("Togliatti_10_528", "204[1][1]").
destination("Audinot_3_117", "14").
destination("Pepoli_12_1838", "180").
destination("Audinot_12_140", "180").
destination("XXI_Aprile_93_889", "54").
destination("Pepoli_3_1710", "14").
destination("Togliatti_9_460", "54").
destination("Togliatti_10_685", "204[1][1]").
destination("Togliatti_3_2355", "14").
destination("Togliatti_71_637", "209").
destination("XXI_Aprile_102_837", "204[1][1]").
destination("Audinot_12_98", "180").
destination("Audinot_1_96", "86").
destination("Pepoli_12_2064", "180").
destination("Togliatti_10_462", "204[1][1]").
destination("Pepoli_2_1830", "77[1][1]").
destination("Togliatti_11_692", "124").
destination("Vittorio_Veneto_10_252", "204[1][1]").
destination("Togliatti_10_452", "204[1][1]").
destination("Togliatti_71_600", "209").
destination("Pepoli_3_1831", "14").
destination("Pepoli_3_1846", "14").
destination("Pepoli_3_1925", "14").
destination("Vittorio_Veneto_2_594", "77[1][1]").
destination("Pepoli_3_1805", "14").
destination("Pepoli_3_2036", "14").
destination("Vittorio_Veneto_1_508", "86").
destination("Togliatti_9_567", "54").
destination("XXI_Aprile_103_619", "204[1][1]").
destination("Costa_70_1315", "209").
destination("Vittorio_Veneto_1_542", "86").
destination("Togliatti_9_620", "54").
destination("Vittorio_Veneto_10_362", "204[1][1]").
destination("Togliatti_71_587", "209").
destination("Togliatti_10_439", "204[1][1]").
destination("Vittorio_Veneto_2_537", "77[1][1]").
destination("Vittorio_Veneto_2_560", "77[1][1]").
destination("Costa_70_1048", "209").
destination("Togliatti_5_573", "[200|60]").
destination("Costa_91_177", "54").
destination("Audinot_2_118", "77[1][1]").
destination("Costa_91_166", "54").
destination("Pepoli_3_1784", "14").
destination("Vittorio_Veneto_10_535", "204[1][1]").
destination("Costa_70_1341", "209").
destination("Pepoli_3_2090", "10").
destination("Costa_50_1322", "[200|60]").
destination("Togliatti_71_707", "209").
destination("Pepoli_3_1725", "14").
destination("Togliatti_10_486", "204[1][1]").
destination("Vittorio_Veneto_1_502", "86").
destination("Pepoli_12_1859", "180").
destination("Vittorio_Veneto_2_530", "77[1][1]").
destination("Togliatti_10_562", "204[1][1]").
destination("Togliatti_9_469", "54").
destination("Vittorio_Veneto_10_288", "204[1][1]").
destination("Vittorio_Veneto_10_517", "204[1][1]").
destination("Togliatti_10_434", "204[1][1]").
destination("Audinot_7_151", "209").
destination("Audinot_10_89", "204[1][1]").
destination("Pepoli_2_1809", "77[1][1]").
destination("Togliatti_10_459", "204[1][1]").
destination("Vittorio_Veneto_2_480", "77[1][1]").
destination("Costa_50_1316", "[200|60]").
destination("Togliatti_11_668", "124").
destination("Togliatti_10_710", "204[1][1]").
destination("Costa_200_1305", "204[1][1]").
destination("Vittorio_Veneto_10_329", "204[1][1]").
destination("Vittorio_Veneto_1_540", "86").
destination("Audinot_7_110", "209").
destination("Vittorio_Veneto_1_578", "86").
destination("Pepoli_2_1697", "77[1][1]").
destination("Silvani_3_1463", "14").
destination("Vittorio_Veneto_73_583", "209").
destination("Togliatti_3_2146", "10").
destination("XXI_Aprile_7_951", "209").
destination("Togliatti_10_407", "204[1][1]").
destination("Vittorio_Veneto_1_570", "86").
destination("XXI_Aprile_9_306", "54").
destination("Togliatti_71_689", "209").
destination("Togliatti_71_624", "209").
destination("Pepoli_12_1769", "180").
destination("Togliatti_10_717", "204[1][1]").
destination("Costa_50_1344", "[200|60]").
destination("Costa_70_1331", "209").
destination("Togliatti_9_275", "54").
destination("Costa_70_1307", "209").
destination("XXI_Aprile_7_809", "209").
destination("Togliatti_3_2465", "14").
destination("Togliatti_9_593", "54").
destination("Audinot_7_137", "209").
destination("Costa_50_1352", "[200|60]").
destination("Costa_200_530", "204[1][1]").
destination("Togliatti_10_271", "204[1][1]").
destination("Togliatti_9_515", "54").
destination("Togliatti_9_514", "54").
destination("Pepoli_3_2018", "10").
destination("Togliatti_10_605", "204[1][1]").
destination("Pepoli_3_2072", "10").
destination("Togliatti_9_642", "54").
destination("Pepoli_12_1895", "180").
destination("Audinot_3_95", "14").
destination("Costa_200_917", "204[1][1]").
destination("Togliatti_10_503", "204[1][1]").
destination("Silvani_1_1213", "86").
destination("XXI_Aprile_94_799", "54").
destination("Pepoli_12_1678", "180").
destination("Audinot_3_115", "14").
destination("Pepoli_12_1992", "180").
destination("Costa_200_240", "204[1][1]").
destination("Costa_200_1343", "204[1][1]").
vehicle("Vittorio_Veneto_2_518", 0).
vehicle("Costa_50_1328", 0).
vehicle("Costa_50_1283", 0).
vehicle("Vittorio_Veneto_2_497", 0).
vehicle("Togliatti_11_691", 0).
vehicle("Costa_50_1372", 0).
vehicle("Vittorio_Veneto_1_529", 0).
vehicle("Vittorio_Veneto_1_543", 0).
vehicle("Togliatti_10_690", 0).
vehicle("Togliatti_10_382", 0).
vehicle("Vittorio_Veneto_2_479", 0).
vehicle("Audinot_3_100", 0).
vehicle("Vittorio_Veneto_2_492", 0).
vehicle("Audinot_3_123", 0).
vehicle("Vittorio_Veneto_10_257", 0).
vehicle("Vittorio_Veneto_1_514", 0).
vehicle("Vittorio_Veneto_32_482", 0).
vehicle("XXI_Aprile_93_172", 0).
vehicle("Pepoli_2_1721", 0).
vehicle("Vittorio_Veneto_1_579", 0).
vehicle("Costa_11_1214", 0).
vehicle("Pepoli_1_1761", 0).
vehicle("Costa_200_1240", 0).
vehicle("Togliatti_9_650", 0).
vehicle("Vittorio_Veneto_2_552", 0).
vehicle("Vittorio_Veneto_10_398", 0).
vehicle("Audinot_12_142", 0).
vehicle("Togliatti_10_475", 0).
vehicle("Audinot_10_135", 0).
vehicle("Togliatti_10_374", 0).
vehicle("Vittorio_Veneto_2_513", 0).
vehicle("Pepoli_1_1676", 0).
vehicle("Audinot_10_97", 0).
vehicle("Togliatti_9_357", 0).
vehicle("XXI_Aprile_9_595", 0).
vehicle("Vittorio_Veneto_10_499", 0).
vehicle("Pepoli_12_1903", 0).
vehicle("Pepoli_3_2077", 0).
vehicle("Togliatti_9_377", 0).
vehicle("Vittorio_Veneto_10_536", 0).
vehicle("Togliatti_10_547", 0).
vehicle("Pepoli_3_1731", 0).
vehicle("Togliatti_10_510", 0).
vehicle("Pepoli_3_2092", 0).
vehicle("Togliatti_10_649", 0).
vehicle("Togliatti_9_437", 0).
vehicle("Costa_50_1314", 0).
vehicle("Togliatti_10_592", 0).
vehicle("Turati_10_23", 0).
vehicle("Vittorio_Veneto_1_566", 0).
vehicle("XXI_Aprile_94_898", 0).
vehicle("Pepoli_2_1713", 0).
vehicle("Costa_200_1167", 0).
vehicle("Pepoli_12_1858", 0).
vehicle("Togliatti_10_578", 0).
vehicle("Togliatti_10_436", 0).
vehicle("Togliatti_3_2098", 0).
vehicle("Togliatti_9_591", 0).
vehicle("Vittorio_Veneto_2_582", 0).
vehicle("Togliatti_10_430", 0).
vehicle("Togliatti_10_419", 0).
vehicle("Vittorio_Veneto_1_586", 0).
vehicle("Togliatti_9_367", 0).
vehicle("Togliatti_71_706", 0).
vehicle("Togliatti_10_356", 0).
vehicle("Togliatti_10_597", 0).
vehicle("Vittorio_Veneto_2_544", 0).
vehicle("Audinot_12_119", 0).
vehicle("Audinot_12_126", 0).
vehicle("Togliatti_10_350", 0).
vehicle("Costa_200_1118", 0).
vehicle("Costa_700_1317", 0).
vehicle("Audinot_3_133", 0).
vehicle("Togliatti_10_682", 0).
vehicle("Pepoli_1_1996", 0).
vehicle("Vittorio_Veneto_10_589", 0).
vehicle("Audinot_7_141", 0).
vehicle("Costa_50_1349", 0).
vehicle("Togliatti_10_537", 0).
vehicle("XXI_Aprile_93_287", 0).
vehicle("Togliatti_10_413", 0).
vehicle("Vittorio_Veneto_10_417", 0).
vehicle("Togliatti_10_577", 0).
vehicle("XXI_Aprile_94_661", 0).
vehicle("Pepoli_3_1826", 0).
vehicle("Togliatti_10_677", 0).
vehicle("Costa_50_1369", 0).
vehicle("Togliatti_10_580", 0).
vehicle("Vittorio_Veneto_2_592", 0).
vehicle("Pepoli_3_1891", 0).
vehicle("Vittorio_Veneto_10_562", 0).
vehicle("XXI_Aprile_102_180", 0).
vehicle("Togliatti_11_681", 0).
vehicle("Togliatti_10_720", 0).
vehicle("Togliatti_10_657", 0).
vehicle("Audinot_3_114", 0).
vehicle("XXI_Aprile_104_961", 0).
vehicle("Audinot_10_90", 0).
vehicle("Vittorio_Veneto_2_575", 0).
vehicle("XXI_Aprile_92_616", 0).
vehicle("Vittorio_Veneto_2_505", 0).
vehicle("Togliatti_9_561", 0).
vehicle("Vittorio_Veneto_10_322", 0).
vehicle("Togliatti_10_585", 0).
vehicle("Togliatti_10_635", 0).
vehicle("Togliatti_10_499", 0).
vehicle("Costa_70_1124", 0).
vehicle("XXI_Aprile_102_588", 0).
vehicle("XXI_Aprile_9_981", 0).
vehicle("Silvani_1_1408", 0).
vehicle("Togliatti_10_446", 0).
vehicle("Togliatti_10_362", 0).
vehicle("Togliatti_10_366", 0).
vehicle("XXI_Aprile_103_801", 0).
vehicle("Vittorio_Veneto_10_481", 0).
vehicle("Togliatti_9_665", 0).
vehicle("XXI_Aprile_93_615", 0).
vehicle("Pepoli_3_1772", 0).
vehicle("XXI_Aprile_93_154", 0).
vehicle("Vittorio_Veneto_10_577", 0).
vehicle("Togliatti_10_525", 0).
vehicle("XXI_Aprile_94_863", 0).
vehicle("Togliatti_10_467", 0).
vehicle("Togliatti_10_609", 0).
vehicle("Togliatti_10_652", 0).
vehicle("Vittorio_Veneto_10_510", 0).
vehicle("Vittorio_Veneto_1_591", 0).
vehicle("Costa_200_1291", 0).
vehicle("Audinot_3_107", 0).
vehicle("XXI_Aprile_94_787", 0).
vehicle("Audinot_10_99", 0).
vehicle("Audinot_9_109", 0).
vehicle("XXI_Aprile_7_830", 0).
vehicle("Togliatti_10_549", 0).
vehicle("Vittorio_Veneto_10_494", 0).
vehicle("Pepoli_12_1877", 0).
vehicle("Togliatti_9_527", 0).
vehicle("Costa_200_1357", 0).
vehicle("Audinot_12_149", 0).
vehicle("Costa_200_543", 0).
vehicle("Vittorio_Veneto_1_532", 0).
vehicle("Vittorio_Veneto_1_531", 0).
vehicle("Vittorio_Veneto_1_584", 0).
vehicle("XXI_Aprile_93_950", 0).
vehicle("Togliatti_10_601", 0).
vehicle("Vittorio_Veneto_10_387", 0).
vehicle("Costa_50_1318", 0).
vehicle("Audinot_3_144", 0).
vehicle("Pepoli_3_1740", 0).
vehicle("Vittorio_Veneto_10_444", 0).
vehicle("Togliatti_3_2477", 0).
vehicle("Audinot_7_116", 0).
vehicle("Vittorio_Veneto_2_563", 0).
vehicle("Togliatti_10_531", 0).
vehicle("Costa_200_762", 0).
vehicle("Pepoli_12_1752", 0).
vehicle("Togliatti_10_584", 0).
vehicle("XXI_Aprile_94_880", 0).
vehicle("Costa_70_1077", 0).
vehicle("Togliatti_3_2110", 0).
vehicle("Costa_91_1213", 0).
vehicle("Audinot_12_104", 0).
vehicle("Togliatti_10_310", 0).
vehicle("Togliatti_9_678", 0).
vehicle("Togliatti_10_435", 0).
vehicle("Togliatti_3_1374", 0).
vehicle("Pepoli_2_2001", 0).
vehicle("Vittorio_Veneto_2_587", 0).
vehicle("Vittorio_Veneto_1_551", 0).
vehicle("Audinot_3_148", 0).
vehicle("Audinot_3_130", 0).
vehicle("Pepoli_3_1727", 0).
vehicle("Audinot_9_122", 0).
vehicle("XXI_Aprile_102_869", 0).
vehicle("Togliatti_10_594", 0).
vehicle("Vittorio_Veneto_1_509", 0).
vehicle("Vittorio_Veneto_2_557", 0).
vehicle("Audinot_10_102", 0).
vehicle("Pepoli_3_1847", 0).
vehicle("Vittorio_Veneto_2_548", 0).
vehicle("XXI_Aprile_94_1001", 0).
vehicle("Togliatti_10_648", 0).
vehicle("Vittorio_Veneto_73_460", 0).
vehicle("Togliatti_9_621", 0).
vehicle("XXI_Aprile_7_957", 0).
vehicle("Pepoli_3_1911", 0).
vehicle("XXI_Aprile_94_841", 0).
vehicle("XXI_Aprile_94_158", 0).
vehicle("Audinot_10_103", 0).
vehicle("Togliatti_3_2420", 0).
vehicle("Togliatti_5_588", 0).
vehicle("Pepoli_3_2002", 0).
vehicle("XXI_Aprile_93_896", 0).
vehicle("Pepoli_3_2006", 0).
vehicle("Audinot_12_106", 0).
vehicle("Togliatti_10_662", 0).
vehicle("Costa_200_813", 0).
vehicle("XXI_Aprile_94_174", 0).
vehicle("Togliatti_11_658", 0).
vehicle("XXI_Aprile_102_622", 0).
vehicle("Vittorio_Veneto_10_463", 0).
vehicle("XXI_Aprile_94_693", 0).
vehicle("Costa_50_1268", 0).
vehicle("Costa_70_1350", 0).
vehicle("XXI_Aprile_94_899", 0).
vehicle("Costa_200_1216", 0).
vehicle("Togliatti_10_522", 0).
vehicle("Audinot_12_101", 0).
vehicle("XXI_Aprile_102_566", 0).
vehicle("Vittorio_Veneto_73_588", 0).
vehicle("Vittorio_Veneto_1_550", 0).
vehicle("Pepoli_12_1792", 0).
vehicle("Togliatti_10_589", 0).
vehicle("Pepoli_12_1949", 0).
vehicle("Togliatti_3_2475", 0).
vehicle("Togliatti_10_414", 0).
vehicle("Vittorio_Veneto_82_504", 0).
vehicle("Togliatti_10_370", 0).
vehicle("Togliatti_10_604", 0).
vehicle("XXI_Aprile_9_857", 0).
vehicle("Costa_70_1342", 0).
vehicle("Togliatti_10_282", 0).
vehicle("Togliatti_10_664", 0).
vehicle("Togliatti_10_606", 0).
vehicle("Vittorio_Veneto_10_503", 0).
vehicle("Vittorio_Veneto_1_506", 0).
vehicle("Audinot_5_125", 0).
vehicle("Pepoli_3_1926", 0).
vehicle("Costa_50_1370", 0).
vehicle("XXI_Aprile_9_532", 0).
vehicle("Togliatti_10_721", 0).
vehicle("Audinot_7_150", 0).
vehicle("Togliatti_10_616", 0).
vehicle("Costa_70_1313", 0).
vehicle("Pepoli_12_1663", 0).
vehicle("Togliatti_10_378", 0).
vehicle("Costa_200_1224", 0).
vehicle("Togliatti_10_478", 0).
vehicle("Togliatti_5_704", 0).
vehicle("Costa_200_978", 0).
vehicle("Togliatti_10_628", 0).
vehicle("Vittorio_Veneto_2_593", 0).
vehicle("Audinot_3_129", 0).
vehicle("Costa_200_1327", 0).
vehicle("Costa_200_1257", 0).
vehicle("Costa_70_1183", 0).
vehicle("Togliatti_71_708", 0).
vehicle("Audinot_12_145", 0).
vehicle("Pepoli_12_1775", 0).
vehicle("Togliatti_10_552", 0).
vehicle("Vittorio_Veneto_10_448", 0).
vehicle("Togliatti_10_555", 0).
vehicle("XXI_Aprile_93_310", 0).
vehicle("Togliatti_10_713", 0).
vehicle("Vittorio_Veneto_10_489", 0).
vehicle("Audinot_5_124", 0).
vehicle("Togliatti_10_641", 0).
vehicle("Vittorio_Veneto_10_367", 0).
vehicle("Togliatti_9_703", 0).
vehicle("Togliatti_10_634", 0).
vehicle("Togliatti_9_575", 0).
vehicle("Costa_200_1362", 0).
vehicle("Costa_70_1330", 0).
vehicle("Costa_50_1364", 0).
vehicle("Togliatti_3_2179", 0).
vehicle("Togliatti_10_488", 0).
vehicle("Togliatti_11_506", 0).
vehicle("Togliatti_71_582", 0).
vehicle("Vittorio_Veneto_2_486", 0).
vehicle("XXI_Aprile_93_189", 0).
vehicle("XXI_Aprile_102_906", 0).
vehicle("Togliatti_10_263", 0).
vehicle("Pepoli_2_1797", 0).
vehicle("Costa_50_1284", 0).
vehicle("Togliatti_9_599", 0).
vehicle("Togliatti_3_2093", 0).
vehicle("Audinot_3_91", 0).
vehicle("Togliatti_10_581", 0).
vehicle("Togliatti_10_509", 0).
vehicle("Pepoli_2_1855", 0).
vehicle("Togliatti_10_614", 0).
vehicle("Vittorio_Veneto_2_477", 0).
vehicle("Vittorio_Veneto_2_516", 0).
vehicle("XXI_Aprile_92_213", 0).
vehicle("Costa_200_197", 0).
vehicle("Costa_70_1373", 0).
vehicle("Audinot_10_111", 0).
vehicle("Vittorio_Veneto_2_573", 0).
vehicle("Audinot_3_138", 0).
vehicle("Audinot_9_92", 0).
vehicle("Costa_700_1326", 0).
vehicle("Vittorio_Veneto_10_215", 0).
vehicle("Audinot_3_143", 0).
vehicle("Togliatti_10_563", 0).
vehicle("Togliatti_10_523", 0).
vehicle("Audinot_3_94", 0).
vehicle("XXI_Aprile_113_933", 0).
vehicle("Costa_200_1205", 0).
vehicle("Togliatti_10_483", 0).
vehicle("Togliatti_10_596", 0).
vehicle("Costa_91_1261", 0).
vehicle("Togliatti_10_705", 0).
vehicle("Vittorio_Veneto_10_556", 0).
vehicle("Togliatti_10_393", 0).
vehicle("Pepoli_12_1919", 0).
vehicle("Silvani_1_1340", 0).
vehicle("Costa_70_1203", 0).
vehicle("Vittorio_Veneto_73_466", 0).
vehicle("Silvani_3_1475", 0).
vehicle("Togliatti_10_476", 0).
vehicle("Pepoli_3_1777", 0).
vehicle("Audinot_3_127", 0).
vehicle("Costa_200_411", 0).
vehicle("Pepoli_2_1785", 0).
vehicle("Togliatti_80_674", 0).
vehicle("Togliatti_3_766", 0).
vehicle("Vittorio_Veneto_2_476", 0).
vehicle("Audinot_5_134", 0).
vehicle("Audinot_10_139", 0).
vehicle("Togliatti_9_481", 0).
vehicle("Audinot_12_132", 0).
vehicle("Togliatti_9_286", 0).
vehicle("Togliatti_9_550", 0).
vehicle("XXI_Aprile_93_838", 0).
vehicle("Costa_8_1354", 0).
vehicle("Audinot_3_88", 0).
vehicle("XXI_Aprile_102_713", 0).
vehicle("XXI_Aprile_7_1009", 0).
vehicle("Togliatti_10_376", 0).
vehicle("Togliatti_10_458", 0).
vehicle("Vittorio_Veneto_2_519", 0).
vehicle("Pepoli_3_2046", 0).
vehicle("Audinot_12_108", 0).
vehicle("XXI_Aprile_102_627", 0).
vehicle("Silvani_1_1234", 0).
vehicle("Togliatti_10_671", 0).
vehicle("Audinot_12_105", 0).
vehicle("XXI_Aprile_92_949", 0).
vehicle("Audinot_7_131", 0).
vehicle("Vittorio_Veneto_3_568", 0).
vehicle("Vittorio_Veneto_2_490", 0).
vehicle("Silvani_1_1415", 0).
vehicle("XXI_Aprile_94_630", 0).
vehicle("Costa_70_1053", 0).
vehicle("Vittorio_Veneto_2_501", 0).
vehicle("Togliatti_9_482", 0).
vehicle("Togliatti_10_558", 0).
vehicle("Costa_200_1287", 0).
vehicle("Vittorio_Veneto_10_431", 0).
vehicle("Silvani_1_1358", 0).
vehicle("Togliatti_10_560", 0).
vehicle("Togliatti_9_390", 0).
vehicle("Costa_70_1149", 0).
vehicle("Vittorio_Veneto_2_520", 0).
vehicle("Togliatti_3_2344", 0).
vehicle("Togliatti_10_477", 0).
vehicle("Vittorio_Veneto_73_559", 0).
vehicle("Togliatti_10_618", 0).
vehicle("Costa_70_1368", 0).
vehicle("Silvani_3_1462", 0).
vehicle("Pepoli_3_2087", 0).
vehicle("Togliatti_71_709", 0).
vehicle("Togliatti_10_663", 0).
vehicle("Togliatti_10_602", 0).
vehicle("Togliatti_11_611", 0).
vehicle("Vittorio_Veneto_10_427", 0).
vehicle("Vittorio_Veneto_2_554", 0).
vehicle("Vittorio_Veneto_10_488", 0).
vehicle("Togliatti_10_564", 0).
vehicle("Togliatti_3_2129", 0).
vehicle("Togliatti_10_463", 0).
vehicle("Togliatti_10_688", 0).
vehicle("Togliatti_3_2120", 0).
vehicle("Togliatti_10_615", 0).
vehicle("Togliatti_10_695", 0).
vehicle("Vittorio_Veneto_1_541", 0).
vehicle("Togliatti_10_595", 0).
vehicle("Audinot_12_147", 0).
vehicle("Togliatti_10_711", 0).
vehicle("Togliatti_9_646", 0).
vehicle("Silvani_3_1498", 0).
vehicle("Silvani_1_1315", 0).
vehicle("Togliatti_11_697", 0).
vehicle("Togliatti_10_423", 0).
vehicle("Togliatti_10_518", 0).
vehicle("Costa_200_1262", 0).
vehicle("Vittorio_Veneto_2_585", 0).
vehicle("Audinot_3_93", 0).
vehicle("Audinot_3_146", 0).
vehicle("Togliatti_10_519", 0).
vehicle("Silvani_3_1480", 0).
vehicle("XXI_Aprile_7_831", 0).
vehicle("Togliatti_10_626", 0).
vehicle("Togliatti_71_660", 0).
vehicle("Togliatti_10_497", 0).
vehicle("Togliatti_11_489", 0).
vehicle("Togliatti_9_675", 0).
vehicle("Togliatti_10_371", 0).
vehicle("Audinot_3_121", 0).
vehicle("Togliatti_3_2474", 0).
vehicle("Vittorio_Veneto_1_547", 0).
vehicle("Pepoli_3_1823", 0).
vehicle("Togliatti_9_466", 0).
vehicle("XXI_Aprile_9_150", 0).
vehicle("Togliatti_80_669", 0).
vehicle("Costa_200_851", 0).
vehicle("Togliatti_9_247", 0).
vehicle("Vittorio_Veneto_10_413", 0).
vehicle("Vittorio_Veneto_2_526", 0).
vehicle("Togliatti_10_598", 0).
vehicle("Vittorio_Veneto_82_595", 0).
vehicle("Costa_700_1366", 0).
vehicle("Audinot_10_120", 0).
vehicle("Vittorio_Veneto_1_498", 0).
vehicle("XXI_Aprile_94_985", 0).
vehicle("Costa_70_1338", 0).
vehicle("Costa_50_1241", 0).
vehicle("Togliatti_10_673", 0).
vehicle("Costa_91_273", 0).
vehicle("Togliatti_10_566", 0).
vehicle("Togliatti_3_2373", 0).
vehicle("Pepoli_3_1906", 0).
vehicle("Togliatti_10_544", 0).
vehicle("Costa_200_1235", 0).
vehicle("XXI_Aprile_7_1002", 0).
vehicle("Togliatti_10_670", 0).
vehicle("Pepoli_3_1718", 0).
vehicle("Pepoli_3_2074", 0).
vehicle("Pepoli_3_2039", 0).
vehicle("Audinot_7_113", 0).
vehicle("XXI_Aprile_102_851", 0).
vehicle("Costa_200_1281", 0).
vehicle("Vittorio_Veneto_2_534", 0).
vehicle("XXI_Aprile_92_878", 0).
vehicle("Togliatti_11_686", 0).
vehicle("Togliatti_3_1768", 0).
vehicle("Pepoli_12_1689", 0).
vehicle("Pepoli_3_1810", 0).
vehicle("Costa_700_1311", 0).
vehicle("Togliatti_10_368", 0).
vehicle("Togliatti_9_273", 0).
vehicle("XXI_Aprile_103_608", 0).
vehicle("Togliatti_10_528", 0).
vehicle("Audinot_3_117", 0).
vehicle("Pepoli_12_1838", 0).
vehicle("Audinot_12_140", 0).
vehicle("XXI_Aprile_93_889", 0).
vehicle("Pepoli_3_1710", 0).
vehicle("Togliatti_9_460", 0).
vehicle("Togliatti_10_685", 0).
vehicle("Togliatti_3_2355", 0).
vehicle("Togliatti_71_637", 0).
vehicle("XXI_Aprile_102_837", 0).
vehicle("Audinot_12_98", 0).
vehicle("Audinot_1_96", 0).
vehicle("Pepoli_12_2064", 0).
vehicle("Togliatti_10_462", 0).
vehicle("Pepoli_2_1830", 0).
vehicle("Togliatti_11_692", 0).
vehicle("Vittorio_Veneto_10_252", 0).
vehicle("Togliatti_10_452", 0).
vehicle("Togliatti_71_600", 0).
vehicle("Pepoli_3_1831", 0).
vehicle("Pepoli_3_1846", 0).
vehicle("Pepoli_3_1925", 0).
vehicle("Vittorio_Veneto_2_594", 0).
vehicle("Pepoli_3_1805", 0).
vehicle("Pepoli_3_2036", 0).
vehicle("Vittorio_Veneto_1_508", 0).
vehicle("Togliatti_9_567", 0).
vehicle("XXI_Aprile_103_619", 0).
vehicle("Costa_70_1315", 0).
vehicle("Vittorio_Veneto_1_542", 0).
vehicle("Togliatti_9_620", 0).
vehicle("Vittorio_Veneto_10_362", 0).
vehicle("Togliatti_71_587", 0).
vehicle("Togliatti_10_439", 0).
vehicle("Vittorio_Veneto_2_537", 0).
vehicle("Vittorio_Veneto_2_560", 0).
vehicle("Costa_70_1048", 0).
vehicle("Togliatti_5_573", 0).
vehicle("Costa_91_177", 0).
vehicle("Audinot_2_118", 0).
vehicle("Costa_91_166", 0).
vehicle("Pepoli_3_1784", 0).
vehicle("Vittorio_Veneto_10_535", 0).
vehicle("Costa_70_1341", 0).
vehicle("Pepoli_3_2090", 0).
vehicle("Costa_50_1322", 0).
vehicle("Togliatti_71_707", 0).
vehicle("Pepoli_3_1725", 0).
vehicle("Togliatti_10_486", 0).
vehicle("Vittorio_Veneto_1_502", 0).
vehicle("Pepoli_12_1859", 0).
vehicle("Vittorio_Veneto_2_530", 0).
vehicle("Togliatti_10_562", 0).
vehicle("Togliatti_9_469", 0).
vehicle("Vittorio_Veneto_10_288", 0).
vehicle("Vittorio_Veneto_10_517", 0).
vehicle("Togliatti_10_434", 0).
vehicle("Audinot_7_151", 0).
vehicle("Audinot_10_89", 0).
vehicle("Pepoli_2_1809", 0).
vehicle("Togliatti_10_459", 0).
vehicle("Vittorio_Veneto_2_480", 0).
vehicle("Costa_50_1316", 0).
vehicle("Togliatti_11_668", 0).
vehicle("Togliatti_10_710", 0).
vehicle("Costa_200_1305", 0).
vehicle("Vittorio_Veneto_10_329", 0).
vehicle("Vittorio_Veneto_1_540", 0).
vehicle("Audinot_7_110", 0).
vehicle("Vittorio_Veneto_1_578", 0).
vehicle("Pepoli_2_1697", 0).
vehicle("Silvani_3_1463", 0).
vehicle("Vittorio_Veneto_73_583", 0).
vehicle("Togliatti_3_2146", 0).
vehicle("XXI_Aprile_7_951", 0).
vehicle("Togliatti_10_407", 0).
vehicle("Vittorio_Veneto_1_570", 0).
vehicle("XXI_Aprile_9_306", 0).
vehicle("Togliatti_71_689", 0).
vehicle("Togliatti_71_624", 0).
vehicle("Pepoli_12_1769", 0).
vehicle("Togliatti_10_717", 0).
vehicle("Costa_50_1344", 0).
vehicle("Costa_70_1331", 0).
vehicle("Togliatti_9_275", 0).
vehicle("Costa_70_1307", 0).
vehicle("XXI_Aprile_7_809", 0).
vehicle("Togliatti_3_2465", 0).
vehicle("Togliatti_9_593", 0).
vehicle("Audinot_7_137", 0).
vehicle("Costa_50_1352", 0).
vehicle("Costa_200_530", 0).
vehicle("Togliatti_10_271", 0).
vehicle("Togliatti_9_515", 0).
vehicle("Togliatti_9_514", 0).
vehicle("Pepoli_3_2018", 0).
vehicle("Togliatti_10_605", 0).
vehicle("Pepoli_3_2072", 0).
vehicle("Togliatti_9_642", 0).
vehicle("Pepoli_12_1895", 0).
vehicle("Audinot_3_95", 0).
vehicle("Costa_200_917", 0).
vehicle("Togliatti_10_503", 0).
vehicle("Silvani_1_1213", 0).
vehicle("XXI_Aprile_94_799", 0).
vehicle("Pepoli_12_1678", 0).
vehicle("Audinot_3_115", 0).
vehicle("Pepoli_12_1992", 0).
vehicle("Costa_200_240", 0).
vehicle("Costa_200_1343", 0).
origin("Audinot_3_152", "131").
vehicle("Audinot_3_152", 1).
possibleRouteOfVehicle("Audinot_3_152", "R1").
possibleRouteOfVehicle("Audinot_3_152", "R2").
possibleRouteOfVehicle("Audinot_3_152", "R3").
possibleRouteOfVehicle("Vittorio_Veneto_2_518", "R4").
possibleRouteOfVehicle("Costa_50_1328", "R5").
possibleRouteOfVehicle("Costa_50_1283", "R5").
possibleRouteOfVehicle("Vittorio_Veneto_2_497", "R6").
possibleRouteOfVehicle("Togliatti_11_691", "R7").
possibleRouteOfVehicle("Costa_50_1372", "R8").
possibleRouteOfVehicle("Vittorio_Veneto_1_529", "R9").
possibleRouteOfVehicle("Vittorio_Veneto_1_543", "R10").
possibleRouteOfVehicle("Togliatti_10_690", "R11").
possibleRouteOfVehicle("Togliatti_10_382", "R12").
possibleRouteOfVehicle("Vittorio_Veneto_2_479", "R13").
possibleRouteOfVehicle("Audinot_3_100", "R14").
possibleRouteOfVehicle("Vittorio_Veneto_2_492", "R6").
possibleRouteOfVehicle("Audinot_3_123", "R15").
possibleRouteOfVehicle("Vittorio_Veneto_10_257", "R12").
possibleRouteOfVehicle("Vittorio_Veneto_1_514", "R9").
possibleRouteOfVehicle("Vittorio_Veneto_32_482", "R16").
possibleRouteOfVehicle("XXI_Aprile_93_172", "R17").
possibleRouteOfVehicle("Pepoli_2_1721", "R18").
possibleRouteOfVehicle("Vittorio_Veneto_1_579", "R10").
possibleRouteOfVehicle("Costa_11_1214", "R19").
possibleRouteOfVehicle("Pepoli_1_1761", "R20").
possibleRouteOfVehicle("Costa_200_1240", "R21").
possibleRouteOfVehicle("Togliatti_9_650", "R22").
possibleRouteOfVehicle("Vittorio_Veneto_2_552", "R23").
possibleRouteOfVehicle("Vittorio_Veneto_10_398", "R24").
possibleRouteOfVehicle("Audinot_12_142", "R25").
possibleRouteOfVehicle("Togliatti_10_475", "R26").
possibleRouteOfVehicle("Audinot_10_135", "R27").
possibleRouteOfVehicle("Togliatti_10_374", "R12").
possibleRouteOfVehicle("Vittorio_Veneto_2_513", "R4").
possibleRouteOfVehicle("Pepoli_1_1676", "R28").
possibleRouteOfVehicle("Audinot_10_97", "R29").
possibleRouteOfVehicle("Togliatti_9_357", "R17").
possibleRouteOfVehicle("XXI_Aprile_9_595", "R17").
possibleRouteOfVehicle("Vittorio_Veneto_10_499", "R30").
possibleRouteOfVehicle("Pepoli_12_1903", "R31").
possibleRouteOfVehicle("Pepoli_3_2077", "R32").
possibleRouteOfVehicle("Togliatti_9_377", "R22").
possibleRouteOfVehicle("Vittorio_Veneto_10_536", "R33").
possibleRouteOfVehicle("Togliatti_10_547", "R34").
possibleRouteOfVehicle("Pepoli_3_1731", "R35").
possibleRouteOfVehicle("Togliatti_10_510", "R36").
possibleRouteOfVehicle("Pepoli_3_2092", "R37").
possibleRouteOfVehicle("Togliatti_10_649", "R38").
possibleRouteOfVehicle("Togliatti_9_437", "R22").
possibleRouteOfVehicle("Costa_50_1314", "R5").
possibleRouteOfVehicle("Togliatti_10_592", "R11").
possibleRouteOfVehicle("Turati_10_23", "R39").
possibleRouteOfVehicle("Vittorio_Veneto_1_566", "R10").
possibleRouteOfVehicle("XXI_Aprile_94_898", "R40").
possibleRouteOfVehicle("Pepoli_2_1713", "R18").
possibleRouteOfVehicle("Costa_200_1167", "R41").
possibleRouteOfVehicle("Pepoli_12_1858", "R31").
possibleRouteOfVehicle("Togliatti_10_578", "R11").
possibleRouteOfVehicle("Togliatti_10_436", "R24").
possibleRouteOfVehicle("Togliatti_3_2098", "R42").
possibleRouteOfVehicle("Togliatti_9_591", "R40").
possibleRouteOfVehicle("Vittorio_Veneto_2_582", "R23").
possibleRouteOfVehicle("Togliatti_10_430", "R12").
possibleRouteOfVehicle("Togliatti_10_419", "R12").
possibleRouteOfVehicle("Vittorio_Veneto_1_586", "R10").
possibleRouteOfVehicle("Togliatti_9_367", "R17").
possibleRouteOfVehicle("Togliatti_71_706", "R43").
possibleRouteOfVehicle("Togliatti_10_356", "R39").
possibleRouteOfVehicle("Togliatti_10_597", "R24").
possibleRouteOfVehicle("Vittorio_Veneto_2_544", "R23").
possibleRouteOfVehicle("Audinot_12_119", "R44").
possibleRouteOfVehicle("Audinot_12_126", "R45").
possibleRouteOfVehicle("Togliatti_10_350", "R39").
possibleRouteOfVehicle("Costa_200_1118", "R21").
possibleRouteOfVehicle("Costa_700_1317", "R46").
possibleRouteOfVehicle("Audinot_3_133", "R1").
possibleRouteOfVehicle("Togliatti_10_682", "R47").
possibleRouteOfVehicle("Pepoli_1_1996", "R48").
possibleRouteOfVehicle("Vittorio_Veneto_10_589", "R33").
possibleRouteOfVehicle("Audinot_7_141", "R49").
possibleRouteOfVehicle("Costa_50_1349", "R50").
possibleRouteOfVehicle("Togliatti_10_537", "R51").
possibleRouteOfVehicle("XXI_Aprile_93_287", "R17").
possibleRouteOfVehicle("Togliatti_10_413", "R12").
possibleRouteOfVehicle("Vittorio_Veneto_10_417", "R24").
possibleRouteOfVehicle("Togliatti_10_577", "R11").
possibleRouteOfVehicle("XXI_Aprile_94_661", "R40").
possibleRouteOfVehicle("Pepoli_3_1826", "R52").
possibleRouteOfVehicle("Togliatti_10_677", "R53").
possibleRouteOfVehicle("Costa_50_1369", "R54").
possibleRouteOfVehicle("Togliatti_10_580", "R24").
possibleRouteOfVehicle("Vittorio_Veneto_2_592", "R23").
possibleRouteOfVehicle("Pepoli_3_1891", "R55").
possibleRouteOfVehicle("Vittorio_Veneto_10_562", "R33").
possibleRouteOfVehicle("XXI_Aprile_102_180", "R12").
possibleRouteOfVehicle("Togliatti_11_681", "R56").
possibleRouteOfVehicle("Togliatti_10_720", "R57").
possibleRouteOfVehicle("Togliatti_10_657", "R58").
possibleRouteOfVehicle("Audinot_3_114", "R14").
possibleRouteOfVehicle("XXI_Aprile_104_961", "R12").
possibleRouteOfVehicle("Audinot_10_90", "R59").
possibleRouteOfVehicle("Vittorio_Veneto_2_575", "R23").
possibleRouteOfVehicle("XXI_Aprile_92_616", "R22").
possibleRouteOfVehicle("Vittorio_Veneto_2_505", "R60").
possibleRouteOfVehicle("Togliatti_9_561", "R61").
possibleRouteOfVehicle("Vittorio_Veneto_10_322", "R39").
possibleRouteOfVehicle("Togliatti_10_585", "R24").
possibleRouteOfVehicle("Togliatti_10_635", "R53").
possibleRouteOfVehicle("Togliatti_10_499", "R36").
possibleRouteOfVehicle("Costa_70_1124", "R62").
possibleRouteOfVehicle("XXI_Aprile_102_588", "R12").
possibleRouteOfVehicle("XXI_Aprile_9_981", "R22").
possibleRouteOfVehicle("Silvani_1_1408", "R63").
possibleRouteOfVehicle("Togliatti_10_446", "R24").
possibleRouteOfVehicle("Togliatti_10_362", "R12").
possibleRouteOfVehicle("Togliatti_10_366", "R12").
possibleRouteOfVehicle("XXI_Aprile_103_801", "R41").
possibleRouteOfVehicle("Vittorio_Veneto_10_481", "R26").
possibleRouteOfVehicle("Togliatti_9_665", "R61").
possibleRouteOfVehicle("XXI_Aprile_93_615", "R64").
possibleRouteOfVehicle("Pepoli_3_1772", "R65").
possibleRouteOfVehicle("XXI_Aprile_93_154", "R40").
possibleRouteOfVehicle("Vittorio_Veneto_10_577", "R33").
possibleRouteOfVehicle("Togliatti_10_525", "R36").
possibleRouteOfVehicle("XXI_Aprile_94_863", "R17").
possibleRouteOfVehicle("Togliatti_10_467", "R26").
possibleRouteOfVehicle("Togliatti_10_609", "R34").
possibleRouteOfVehicle("Togliatti_10_652", "R66").
possibleRouteOfVehicle("Vittorio_Veneto_10_510", "R67").
possibleRouteOfVehicle("Vittorio_Veneto_1_591", "R10").
possibleRouteOfVehicle("Costa_200_1291", "R39").
possibleRouteOfVehicle("Audinot_3_107", "R14").
possibleRouteOfVehicle("XXI_Aprile_94_787", "R68").
possibleRouteOfVehicle("Audinot_10_99", "R29").
possibleRouteOfVehicle("Audinot_9_109", "R69").
possibleRouteOfVehicle("XXI_Aprile_7_830", "R70").
possibleRouteOfVehicle("Togliatti_10_549", "R24").
possibleRouteOfVehicle("Vittorio_Veneto_10_494", "R30").
possibleRouteOfVehicle("Pepoli_12_1877", "R71").
possibleRouteOfVehicle("Togliatti_9_527", "R22").
possibleRouteOfVehicle("Costa_200_1357", "R24").
possibleRouteOfVehicle("Audinot_12_149", "R45").
possibleRouteOfVehicle("Costa_200_543", "R12").
possibleRouteOfVehicle("Vittorio_Veneto_1_532", "R9").
possibleRouteOfVehicle("Vittorio_Veneto_1_531", "R9").
possibleRouteOfVehicle("Vittorio_Veneto_1_584", "R10").
possibleRouteOfVehicle("XXI_Aprile_93_950", "R22").
possibleRouteOfVehicle("Togliatti_10_601", "R11").
possibleRouteOfVehicle("Vittorio_Veneto_10_387", "R12").
possibleRouteOfVehicle("Costa_50_1318", "R5").
possibleRouteOfVehicle("Audinot_3_144", "R1").
possibleRouteOfVehicle("Pepoli_3_1740", "R35").
possibleRouteOfVehicle("Vittorio_Veneto_10_444", "R24").
possibleRouteOfVehicle("Togliatti_3_2477", "R72").
possibleRouteOfVehicle("Audinot_7_116", "R70").
possibleRouteOfVehicle("Vittorio_Veneto_2_563", "R23").
possibleRouteOfVehicle("Togliatti_10_531", "R36").
possibleRouteOfVehicle("Costa_200_762", "R21").
possibleRouteOfVehicle("Pepoli_12_1752", "R73").
possibleRouteOfVehicle("Togliatti_10_584", "R11").
possibleRouteOfVehicle("XXI_Aprile_94_880", "R22").
possibleRouteOfVehicle("Costa_70_1077", "R70").
possibleRouteOfVehicle("Togliatti_3_2110", "R74").
possibleRouteOfVehicle("Costa_91_1213", "R17").
possibleRouteOfVehicle("Audinot_12_104", "R44").
possibleRouteOfVehicle("Togliatti_10_310", "R12").
possibleRouteOfVehicle("Togliatti_9_678", "R75").
possibleRouteOfVehicle("Togliatti_10_435", "R24").
possibleRouteOfVehicle("Togliatti_3_1374", "R42").
possibleRouteOfVehicle("Pepoli_2_2001", "R76").
possibleRouteOfVehicle("Vittorio_Veneto_2_587", "R23").
possibleRouteOfVehicle("Vittorio_Veneto_1_551", "R10").
possibleRouteOfVehicle("Audinot_3_148", "R2").
possibleRouteOfVehicle("Audinot_3_130", "R1").
possibleRouteOfVehicle("Pepoli_3_1727", "R35").
possibleRouteOfVehicle("Audinot_9_122", "R69").
possibleRouteOfVehicle("XXI_Aprile_102_869", "R21").
possibleRouteOfVehicle("Togliatti_10_594", "R11").
possibleRouteOfVehicle("Vittorio_Veneto_1_509", "R9").
possibleRouteOfVehicle("Vittorio_Veneto_2_557", "R23").
possibleRouteOfVehicle("Audinot_10_102", "R29").
possibleRouteOfVehicle("Pepoli_3_1847", "R55").
possibleRouteOfVehicle("Vittorio_Veneto_2_548", "R23").
possibleRouteOfVehicle("XXI_Aprile_94_1001", "R22").
possibleRouteOfVehicle("Togliatti_10_648", "R47").
possibleRouteOfVehicle("Vittorio_Veneto_73_460", "R77").
possibleRouteOfVehicle("Togliatti_9_621", "R78").
possibleRouteOfVehicle("XXI_Aprile_7_957", "R46").
possibleRouteOfVehicle("Pepoli_3_1911", "R55").
possibleRouteOfVehicle("XXI_Aprile_94_841", "R40").
possibleRouteOfVehicle("XXI_Aprile_94_158", "R17").
possibleRouteOfVehicle("Audinot_10_103", "R29").
possibleRouteOfVehicle("Togliatti_3_2420", "R79").
possibleRouteOfVehicle("Togliatti_5_588", "R80").
possibleRouteOfVehicle("Pepoli_3_2002", "R72").
possibleRouteOfVehicle("XXI_Aprile_93_896", "R40").
possibleRouteOfVehicle("Pepoli_3_2006", "R72").
possibleRouteOfVehicle("Audinot_12_106", "R44").
possibleRouteOfVehicle("Togliatti_10_662", "R24").
possibleRouteOfVehicle("Costa_200_813", "R21").
possibleRouteOfVehicle("XXI_Aprile_94_174", "R17").
possibleRouteOfVehicle("Togliatti_11_658", "R81").
possibleRouteOfVehicle("XXI_Aprile_102_622", "R21").
possibleRouteOfVehicle("Vittorio_Veneto_10_463", "R24").
possibleRouteOfVehicle("XXI_Aprile_94_693", "R22").
possibleRouteOfVehicle("Costa_50_1268", "R82").
possibleRouteOfVehicle("Costa_70_1350", "R83").
possibleRouteOfVehicle("XXI_Aprile_94_899", "R17").
possibleRouteOfVehicle("Costa_200_1216", "R51").
possibleRouteOfVehicle("Togliatti_10_522", "R51").
possibleRouteOfVehicle("Audinot_12_101", "R44").
possibleRouteOfVehicle("XXI_Aprile_102_566", "R21").
possibleRouteOfVehicle("Vittorio_Veneto_73_588", "R84").
possibleRouteOfVehicle("Vittorio_Veneto_1_550", "R10").
possibleRouteOfVehicle("Pepoli_12_1792", "R85").
possibleRouteOfVehicle("Togliatti_10_589", "R11").
possibleRouteOfVehicle("Pepoli_12_1949", "R31").
possibleRouteOfVehicle("Togliatti_3_2475", "R86").
possibleRouteOfVehicle("Togliatti_10_414", "R12").
possibleRouteOfVehicle("Vittorio_Veneto_82_504", "R87").
possibleRouteOfVehicle("Togliatti_10_370", "R12").
possibleRouteOfVehicle("Togliatti_10_604", "R11").
possibleRouteOfVehicle("XXI_Aprile_9_857", "R40").
possibleRouteOfVehicle("Costa_70_1342", "R46").
possibleRouteOfVehicle("Togliatti_10_282", "R12").
possibleRouteOfVehicle("Togliatti_10_664", "R47").
possibleRouteOfVehicle("Togliatti_10_606", "R11").
possibleRouteOfVehicle("Vittorio_Veneto_10_503", "R30").
possibleRouteOfVehicle("Vittorio_Veneto_1_506", "R88").
possibleRouteOfVehicle("Audinot_5_125", "R89").
possibleRouteOfVehicle("Pepoli_3_1926", "R55").
possibleRouteOfVehicle("Costa_50_1370", "R54").
possibleRouteOfVehicle("XXI_Aprile_9_532", "R68").
possibleRouteOfVehicle("Togliatti_10_721", "R53").
possibleRouteOfVehicle("Audinot_7_150", "R49").
possibleRouteOfVehicle("Togliatti_10_616", "R11").
possibleRouteOfVehicle("Costa_70_1313", "R46").
possibleRouteOfVehicle("Pepoli_12_1663", "R90").
possibleRouteOfVehicle("Togliatti_10_378", "R12").
possibleRouteOfVehicle("Costa_200_1224", "R21").
possibleRouteOfVehicle("Togliatti_10_478", "R26").
possibleRouteOfVehicle("Togliatti_5_704", "R91").
possibleRouteOfVehicle("Costa_200_978", "R21").
possibleRouteOfVehicle("Togliatti_10_628", "R11").
possibleRouteOfVehicle("Vittorio_Veneto_2_593", "R23").
possibleRouteOfVehicle("Audinot_3_129", "R1").
possibleRouteOfVehicle("Costa_200_1327", "R12").
possibleRouteOfVehicle("Costa_200_1257", "R39").
possibleRouteOfVehicle("Costa_70_1183", "R92").
possibleRouteOfVehicle("Togliatti_71_708", "R93").
possibleRouteOfVehicle("Audinot_12_145", "R25").
possibleRouteOfVehicle("Pepoli_12_1775", "R94").
possibleRouteOfVehicle("Togliatti_10_552", "R11").
possibleRouteOfVehicle("Vittorio_Veneto_10_448", "R24").
possibleRouteOfVehicle("Togliatti_10_555", "R11").
possibleRouteOfVehicle("XXI_Aprile_93_310", "R17").
possibleRouteOfVehicle("Togliatti_10_713", "R11").
possibleRouteOfVehicle("Vittorio_Veneto_10_489", "R26").
possibleRouteOfVehicle("Audinot_5_124", "R89").
possibleRouteOfVehicle("Togliatti_10_641", "R47").
possibleRouteOfVehicle("Vittorio_Veneto_10_367", "R12").
possibleRouteOfVehicle("Togliatti_9_703", "R61").
possibleRouteOfVehicle("Togliatti_10_634", "R21").
possibleRouteOfVehicle("Togliatti_9_575", "R40").
possibleRouteOfVehicle("Costa_200_1362", "R24").
possibleRouteOfVehicle("Costa_70_1330", "R46").
possibleRouteOfVehicle("Costa_50_1364", "R95").
possibleRouteOfVehicle("Togliatti_3_2179", "R42").
possibleRouteOfVehicle("Togliatti_10_488", "R96").
possibleRouteOfVehicle("Togliatti_11_506", "R97").
possibleRouteOfVehicle("Togliatti_71_582", "R46").
possibleRouteOfVehicle("Vittorio_Veneto_2_486", "R6").
possibleRouteOfVehicle("XXI_Aprile_93_189", "R17").
possibleRouteOfVehicle("XXI_Aprile_102_906", "R39").
possibleRouteOfVehicle("Togliatti_10_263", "R21").
possibleRouteOfVehicle("Pepoli_2_1797", "R98").
possibleRouteOfVehicle("Costa_50_1284", "R5").
possibleRouteOfVehicle("Togliatti_9_599", "R22").
possibleRouteOfVehicle("Togliatti_3_2093", "R42").
possibleRouteOfVehicle("Audinot_3_91", "R72").
possibleRouteOfVehicle("Togliatti_10_581", "R11").
possibleRouteOfVehicle("Togliatti_10_509", "R36").
possibleRouteOfVehicle("Pepoli_2_1855", "R76").
possibleRouteOfVehicle("Togliatti_10_614", "R24").
possibleRouteOfVehicle("Vittorio_Veneto_2_477", "R13").
possibleRouteOfVehicle("Vittorio_Veneto_2_516", "R4").
possibleRouteOfVehicle("XXI_Aprile_92_213", "R17").
possibleRouteOfVehicle("Costa_200_197", "R12").
possibleRouteOfVehicle("Costa_70_1373", "R99").
possibleRouteOfVehicle("Audinot_10_111", "R29").
possibleRouteOfVehicle("Vittorio_Veneto_2_573", "R23").
possibleRouteOfVehicle("Audinot_3_138", "R2").
possibleRouteOfVehicle("Audinot_9_92", "R100").
possibleRouteOfVehicle("Costa_700_1326", "R92").
possibleRouteOfVehicle("Vittorio_Veneto_10_215", "R12").
possibleRouteOfVehicle("Audinot_3_143", "R2").
possibleRouteOfVehicle("Togliatti_10_563", "R11").
possibleRouteOfVehicle("Togliatti_10_523", "R36").
possibleRouteOfVehicle("Audinot_3_94", "R14").
possibleRouteOfVehicle("XXI_Aprile_113_933", "R101").
possibleRouteOfVehicle("Costa_200_1205", "R21").
possibleRouteOfVehicle("Togliatti_10_483", "R26").
possibleRouteOfVehicle("Togliatti_10_596", "R11").
possibleRouteOfVehicle("Costa_91_1261", "R17").
possibleRouteOfVehicle("Togliatti_10_705", "R11").
possibleRouteOfVehicle("Vittorio_Veneto_10_556", "R102").
possibleRouteOfVehicle("Togliatti_10_393", "R12").
possibleRouteOfVehicle("Pepoli_12_1919", "R31").
possibleRouteOfVehicle("Silvani_1_1340", "R103").
possibleRouteOfVehicle("Costa_70_1203", "R92").
possibleRouteOfVehicle("Vittorio_Veneto_73_466", "R77").
possibleRouteOfVehicle("Silvani_3_1475", "R65").
possibleRouteOfVehicle("Togliatti_10_476", "R26").
possibleRouteOfVehicle("Pepoli_3_1777", "R104").
possibleRouteOfVehicle("Audinot_3_127", "R1").
possibleRouteOfVehicle("Costa_200_411", "R39").
possibleRouteOfVehicle("Pepoli_2_1785", "R98").
possibleRouteOfVehicle("Togliatti_80_674", "R105").
possibleRouteOfVehicle("Togliatti_3_766", "R106").
possibleRouteOfVehicle("Vittorio_Veneto_2_476", "R13").
possibleRouteOfVehicle("Audinot_5_134", "R89").
possibleRouteOfVehicle("Audinot_10_139", "R27").
possibleRouteOfVehicle("Togliatti_9_481", "R78").
possibleRouteOfVehicle("Audinot_12_132", "R45").
possibleRouteOfVehicle("Togliatti_9_286", "R64").
possibleRouteOfVehicle("Togliatti_9_550", "R107").
possibleRouteOfVehicle("XXI_Aprile_93_838", "R68").
possibleRouteOfVehicle("Costa_8_1354", "R108").
possibleRouteOfVehicle("Audinot_3_88", "R72").
possibleRouteOfVehicle("XXI_Aprile_102_713", "R21").
possibleRouteOfVehicle("XXI_Aprile_7_1009", "R46").
possibleRouteOfVehicle("Togliatti_10_376", "R12").
possibleRouteOfVehicle("Togliatti_10_458", "R24").
possibleRouteOfVehicle("Vittorio_Veneto_2_519", "R4").
possibleRouteOfVehicle("Pepoli_3_2046", "R74").
possibleRouteOfVehicle("Audinot_12_108", "R44").
possibleRouteOfVehicle("XXI_Aprile_102_627", "R21").
possibleRouteOfVehicle("Silvani_1_1234", "R28").
possibleRouteOfVehicle("Togliatti_10_671", "R66").
possibleRouteOfVehicle("Audinot_12_105", "R44").
possibleRouteOfVehicle("XXI_Aprile_92_949", "R17").
possibleRouteOfVehicle("Audinot_7_131", "R109").
possibleRouteOfVehicle("Vittorio_Veneto_3_568", "R110").
possibleRouteOfVehicle("Vittorio_Veneto_2_490", "R6").
possibleRouteOfVehicle("Silvani_1_1415", "R111").
possibleRouteOfVehicle("XXI_Aprile_94_630", "R64").
possibleRouteOfVehicle("Costa_70_1053", "R70").
possibleRouteOfVehicle("Vittorio_Veneto_2_501", "R6").
possibleRouteOfVehicle("Togliatti_9_482", "R75").
possibleRouteOfVehicle("Togliatti_10_558", "R11").
possibleRouteOfVehicle("Costa_200_1287", "R12").
possibleRouteOfVehicle("Vittorio_Veneto_10_431", "R24").
possibleRouteOfVehicle("Silvani_1_1358", "R103").
possibleRouteOfVehicle("Togliatti_10_560", "R11").
possibleRouteOfVehicle("Togliatti_9_390", "R17").
possibleRouteOfVehicle("Costa_70_1149", "R62").
possibleRouteOfVehicle("Vittorio_Veneto_2_520", "R4").
possibleRouteOfVehicle("Togliatti_3_2344", "R112").
possibleRouteOfVehicle("Togliatti_10_477", "R26").
possibleRouteOfVehicle("Vittorio_Veneto_73_559", "R84").
possibleRouteOfVehicle("Togliatti_10_618", "R34").
possibleRouteOfVehicle("Costa_70_1368", "R113").
possibleRouteOfVehicle("Silvani_3_1462", "R35").
possibleRouteOfVehicle("Pepoli_3_2087", "R32").
possibleRouteOfVehicle("Togliatti_71_709", "R43").
possibleRouteOfVehicle("Togliatti_10_663", "R47").
possibleRouteOfVehicle("Togliatti_10_602", "R38").
possibleRouteOfVehicle("Togliatti_11_611", "R114").
possibleRouteOfVehicle("Vittorio_Veneto_10_427", "R24").
possibleRouteOfVehicle("Vittorio_Veneto_2_554", "R23").
possibleRouteOfVehicle("Vittorio_Veneto_10_488", "R26").
possibleRouteOfVehicle("Togliatti_10_564", "R11").
possibleRouteOfVehicle("Togliatti_3_2129", "R74").
possibleRouteOfVehicle("Togliatti_10_463", "R24").
possibleRouteOfVehicle("Togliatti_10_688", "R11").
possibleRouteOfVehicle("Togliatti_3_2120", "R74").
possibleRouteOfVehicle("Togliatti_10_615", "R11").
possibleRouteOfVehicle("Togliatti_10_695", "R57").
possibleRouteOfVehicle("Vittorio_Veneto_1_541", "R10").
possibleRouteOfVehicle("Togliatti_10_595", "R24").
possibleRouteOfVehicle("Audinot_12_147", "R25").
possibleRouteOfVehicle("Togliatti_10_711", "R11").
possibleRouteOfVehicle("Togliatti_9_646", "R61").
possibleRouteOfVehicle("Silvani_3_1498", "R65").
possibleRouteOfVehicle("Silvani_1_1315", "R28").
possibleRouteOfVehicle("Togliatti_11_697", "R115").
possibleRouteOfVehicle("Togliatti_10_423", "R12").
possibleRouteOfVehicle("Togliatti_10_518", "R51").
possibleRouteOfVehicle("Costa_200_1262", "R21").
possibleRouteOfVehicle("Vittorio_Veneto_2_585", "R23").
possibleRouteOfVehicle("Audinot_3_93", "R14").
possibleRouteOfVehicle("Audinot_3_146", "R1").
possibleRouteOfVehicle("Togliatti_10_519", "R41").
possibleRouteOfVehicle("Silvani_3_1480", "R65").
possibleRouteOfVehicle("XXI_Aprile_7_831", "R92").
possibleRouteOfVehicle("Togliatti_10_626", "R38").
possibleRouteOfVehicle("Togliatti_71_660", "R116").
possibleRouteOfVehicle("Togliatti_10_497", "R36").
possibleRouteOfVehicle("Togliatti_11_489", "R97").
possibleRouteOfVehicle("Togliatti_9_675", "R117").
possibleRouteOfVehicle("Togliatti_10_371", "R12").
possibleRouteOfVehicle("Audinot_3_121", "R15").
possibleRouteOfVehicle("Togliatti_3_2474", "R86").
possibleRouteOfVehicle("Vittorio_Veneto_1_547", "R10").
possibleRouteOfVehicle("Pepoli_3_1823", "R104").
possibleRouteOfVehicle("Togliatti_9_466", "R75").
possibleRouteOfVehicle("XXI_Aprile_9_150", "R64").
possibleRouteOfVehicle("Togliatti_80_669", "R118").
possibleRouteOfVehicle("Costa_200_851", "R21").
possibleRouteOfVehicle("Togliatti_9_247", "R40").
possibleRouteOfVehicle("Vittorio_Veneto_10_413", "R24").
possibleRouteOfVehicle("Vittorio_Veneto_2_526", "R4").
possibleRouteOfVehicle("Togliatti_10_598", "R11").
possibleRouteOfVehicle("Vittorio_Veneto_82_595", "R119").
possibleRouteOfVehicle("Costa_700_1366", "R120").
possibleRouteOfVehicle("Audinot_10_120", "R29").
possibleRouteOfVehicle("Vittorio_Veneto_1_498", "R121").
possibleRouteOfVehicle("XXI_Aprile_94_985", "R22").
possibleRouteOfVehicle("Costa_70_1338", "R46").
possibleRouteOfVehicle("Costa_50_1241", "R122").
possibleRouteOfVehicle("Togliatti_10_673", "R53").
possibleRouteOfVehicle("Costa_91_273", "R64").
possibleRouteOfVehicle("Togliatti_10_566", "R11").
possibleRouteOfVehicle("Togliatti_3_2373", "R86").
possibleRouteOfVehicle("Pepoli_3_1906", "R55").
possibleRouteOfVehicle("Togliatti_10_544", "R36").
possibleRouteOfVehicle("Costa_200_1235", "R51").
possibleRouteOfVehicle("XXI_Aprile_7_1002", "R46").
possibleRouteOfVehicle("Togliatti_10_670", "R11").
possibleRouteOfVehicle("Pepoli_3_1718", "R35").
possibleRouteOfVehicle("Pepoli_3_2074", "R123").
possibleRouteOfVehicle("Pepoli_3_2039", "R74").
possibleRouteOfVehicle("Audinot_7_113", "R70").
possibleRouteOfVehicle("XXI_Aprile_102_851", "R21").
possibleRouteOfVehicle("Costa_200_1281", "R12").
possibleRouteOfVehicle("Vittorio_Veneto_2_534", "R4").
possibleRouteOfVehicle("XXI_Aprile_92_878", "R40").
possibleRouteOfVehicle("Togliatti_11_686", "R81").
possibleRouteOfVehicle("Togliatti_3_1768", "R42").
possibleRouteOfVehicle("Pepoli_12_1689", "R124").
possibleRouteOfVehicle("Pepoli_3_1810", "R104").
possibleRouteOfVehicle("Costa_700_1311", "R46").
possibleRouteOfVehicle("Togliatti_10_368", "R12").
possibleRouteOfVehicle("Togliatti_9_273", "R64").
possibleRouteOfVehicle("XXI_Aprile_103_608", "R21").
possibleRouteOfVehicle("Togliatti_10_528", "R36").
possibleRouteOfVehicle("Audinot_3_117", "R14").
possibleRouteOfVehicle("Pepoli_12_1838", "R125").
possibleRouteOfVehicle("Audinot_12_140", "R25").
possibleRouteOfVehicle("XXI_Aprile_93_889", "R40").
possibleRouteOfVehicle("Pepoli_3_1710", "R35").
possibleRouteOfVehicle("Togliatti_9_460", "R22").
possibleRouteOfVehicle("Togliatti_10_685", "R126").
possibleRouteOfVehicle("Togliatti_3_2355", "R86").
possibleRouteOfVehicle("Togliatti_71_637", "R77").
possibleRouteOfVehicle("XXI_Aprile_102_837", "R41").
possibleRouteOfVehicle("Audinot_12_98", "R44").
possibleRouteOfVehicle("Audinot_1_96", "R127").
possibleRouteOfVehicle("Pepoli_12_2064", "R128").
possibleRouteOfVehicle("Togliatti_10_462", "R24").
possibleRouteOfVehicle("Pepoli_2_1830", "R129").
possibleRouteOfVehicle("Togliatti_11_692", "R81").
possibleRouteOfVehicle("Vittorio_Veneto_10_252", "R12").
possibleRouteOfVehicle("Togliatti_10_452", "R24").
possibleRouteOfVehicle("Togliatti_71_600", "R46").
possibleRouteOfVehicle("Pepoli_3_1831", "R130").
possibleRouteOfVehicle("Pepoli_3_1846", "R55").
possibleRouteOfVehicle("Pepoli_3_1925", "R55").
possibleRouteOfVehicle("Vittorio_Veneto_2_594", "R23").
possibleRouteOfVehicle("Pepoli_3_1805", "R104").
possibleRouteOfVehicle("Pepoli_3_2036", "R72").
possibleRouteOfVehicle("Vittorio_Veneto_1_508", "R9").
possibleRouteOfVehicle("Togliatti_9_567", "R61").
possibleRouteOfVehicle("XXI_Aprile_103_619", "R21").
possibleRouteOfVehicle("Costa_70_1315", "R46").
possibleRouteOfVehicle("Vittorio_Veneto_1_542", "R10").
possibleRouteOfVehicle("Togliatti_9_620", "R61").
possibleRouteOfVehicle("Vittorio_Veneto_10_362", "R12").
possibleRouteOfVehicle("Togliatti_71_587", "R46").
possibleRouteOfVehicle("Togliatti_10_439", "R24").
possibleRouteOfVehicle("Vittorio_Veneto_2_537", "R23").
possibleRouteOfVehicle("Vittorio_Veneto_2_560", "R23").
possibleRouteOfVehicle("Costa_70_1048", "R70").
possibleRouteOfVehicle("Togliatti_5_573", "R131").
possibleRouteOfVehicle("Costa_91_177", "R40").
possibleRouteOfVehicle("Audinot_2_118", "R132").
possibleRouteOfVehicle("Costa_91_166", "R40").
possibleRouteOfVehicle("Pepoli_3_1784", "R104").
possibleRouteOfVehicle("Vittorio_Veneto_10_535", "R33").
possibleRouteOfVehicle("Costa_70_1341", "R46").
possibleRouteOfVehicle("Pepoli_3_2090", "R32").
possibleRouteOfVehicle("Costa_50_1322", "R5").
possibleRouteOfVehicle("Togliatti_71_707", "R93").
possibleRouteOfVehicle("Pepoli_3_1725", "R35").
possibleRouteOfVehicle("Togliatti_10_486", "R26").
possibleRouteOfVehicle("Vittorio_Veneto_1_502", "R88").
possibleRouteOfVehicle("Pepoli_12_1859", "R31").
possibleRouteOfVehicle("Vittorio_Veneto_2_530", "R4").
possibleRouteOfVehicle("Togliatti_10_562", "R11").
possibleRouteOfVehicle("Togliatti_9_469", "R75").
possibleRouteOfVehicle("Vittorio_Veneto_10_288", "R12").
possibleRouteOfVehicle("Vittorio_Veneto_10_517", "R67").
possibleRouteOfVehicle("Togliatti_10_434", "R12").
possibleRouteOfVehicle("Audinot_7_151", "R49").
possibleRouteOfVehicle("Audinot_10_89", "R133").
possibleRouteOfVehicle("Pepoli_2_1809", "R98").
possibleRouteOfVehicle("Togliatti_10_459", "R24").
possibleRouteOfVehicle("Vittorio_Veneto_2_480", "R6").
possibleRouteOfVehicle("Costa_50_1316", "R5").
possibleRouteOfVehicle("Togliatti_11_668", "R134").
possibleRouteOfVehicle("Togliatti_10_710", "R11").
possibleRouteOfVehicle("Costa_200_1305", "R12").
possibleRouteOfVehicle("Vittorio_Veneto_10_329", "R39").
possibleRouteOfVehicle("Vittorio_Veneto_1_540", "R10").
possibleRouteOfVehicle("Audinot_7_110", "R70").
possibleRouteOfVehicle("Vittorio_Veneto_1_578", "R10").
possibleRouteOfVehicle("Pepoli_2_1697", "R18").
possibleRouteOfVehicle("Silvani_3_1463", "R35").
possibleRouteOfVehicle("Vittorio_Veneto_73_583", "R84").
possibleRouteOfVehicle("Togliatti_3_2146", "R74").
possibleRouteOfVehicle("XXI_Aprile_7_951", "R46").
possibleRouteOfVehicle("Togliatti_10_407", "R12").
possibleRouteOfVehicle("Vittorio_Veneto_1_570", "R10").
possibleRouteOfVehicle("XXI_Aprile_9_306", "R17").
possibleRouteOfVehicle("Togliatti_71_689", "R99").
possibleRouteOfVehicle("Togliatti_71_624", "R77").
possibleRouteOfVehicle("Pepoli_12_1769", "R94").
possibleRouteOfVehicle("Togliatti_10_717", "R30").
possibleRouteOfVehicle("Costa_50_1344", "R5").
possibleRouteOfVehicle("Costa_70_1331", "R46").
possibleRouteOfVehicle("Togliatti_9_275", "R17").
possibleRouteOfVehicle("Costa_70_1307", "R46").
possibleRouteOfVehicle("XXI_Aprile_7_809", "R92").
possibleRouteOfVehicle("Togliatti_3_2465", "R86").
possibleRouteOfVehicle("Togliatti_9_593", "R61").
possibleRouteOfVehicle("Audinot_7_137", "R135").
possibleRouteOfVehicle("Costa_50_1352", "R136").
possibleRouteOfVehicle("Costa_200_530", "R21").
possibleRouteOfVehicle("Togliatti_10_271", "R21").
possibleRouteOfVehicle("Togliatti_9_515", "R137").
possibleRouteOfVehicle("Togliatti_9_514", "R137").
possibleRouteOfVehicle("Pepoli_3_2018", "R74").
possibleRouteOfVehicle("Togliatti_10_605", "R24").
possibleRouteOfVehicle("Pepoli_3_2072", "R32").
possibleRouteOfVehicle("Togliatti_9_642", "R138").
possibleRouteOfVehicle("Pepoli_12_1895", "R31").
possibleRouteOfVehicle("Audinot_3_95", "R14").
possibleRouteOfVehicle("Costa_200_917", "R21").
possibleRouteOfVehicle("Togliatti_10_503", "R36").
possibleRouteOfVehicle("Silvani_1_1213", "R28").
possibleRouteOfVehicle("XXI_Aprile_94_799", "R68").
possibleRouteOfVehicle("Pepoli_12_1678", "R124").
possibleRouteOfVehicle("Audinot_3_115", "R14").
possibleRouteOfVehicle("Pepoli_12_1992", "R31").
possibleRouteOfVehicle("Costa_200_240", "R21").
possibleRouteOfVehicle("Costa_200_1343", "R12").
time(0).
time(5).
time(10).
time(15).
time(20).
time(25).
time(30).
time(35).
time(40).
time(45).
time(50).
time(55).
time(60).
time(65).
time(70).
time(75).
time(80).
time(85).
time(90).
time(95).
time(100).
time(105).
time(110).
time(115).
time(120).
time(125).
time(130).
time(135).
time(140).
time(145).
time(150).
time(155).
time(160).
time(165).
time(170).
time(175).
time(180).
time(185).
time(190).
time(195).
time(200).
time(205).
time(210).
time(215).
time(220).
time(225).
time(230).
time(235).
time(240).
time(245).
time(250).
time(255).
time(260).
time(265).
time(270).
time(275).
time(280).
time(285).
time(290).
time(295).
time(300).
time(305).
time(310).
time(315).
time(320).
time(325).
time(330).
time(335).
time(340).
time(345).
time(350).
time(355).
time(360).
time(365).
time(370).
time(375).
time(380).
time(385).
time(390).
time(395).
time(400).
time(405).
time(410).
time(415).
time(420).
time(425).
time(430).
time(435).
time(440).
time(445).
time(450).
time(455).
time(460).
time(465).
time(470).
time(475).
time(480).
time(485).
time(490).
time(495).
time(500).
time(505).
time(510).
time(515).
time(520).
time(525).
time(530).
time(535).
time(540).
time(545).
time(550).
time(555).
time(560).
time(565).
time(570).
time(575).
time(580).
time(585).
time(590).
time(595).
time(600).
time(605).
time(610).
time(615).
time(620).
time(625).
time(630).
time(635).
time(640).
time(645).
time(650).
time(655).
time(660).
time(665).
time(670).
time(675).
time(680).
time(685).
time(690).
time(695).
time(700).
time(705).
time(710).
time(715).
time(720).
time(725).
time(730).
time(735).
time(740).
time(745).
time(750).
time(755).
time(760).
time(765).
time(770).
time(775).
time(780).
time(785).
time(790).
time(795).
time(800).
time(805).
time(810).
time(815).
time(820).
time(825).
time(830).
time(835).
time(840).
time(845).
time(850).
time(855).
time(860).
time(865).
time(870).
time(875).
time(880).
time(885).
time(890).
time(895).
time(900).
time(905).
time(910).
time(915).
time(920).
time(925).
time(930).
time(935).
time(940).
time(945).
time(950).
time(955).
time(960).
time(965).
time(970).
time(975).
time(980).
time(985).
time(990).
time(995).
time(1000).
time(1005).
time(1010).
time(1015).
time(1020).
time(1025).
time(1030).
time(1035).
time(1040).
time(1045).
time(1050).
time(1055).
time(1060).
time(1065).
time(1070).
time(1075).
time(1080).
time(1085).
time(1090).
time(1095).
time(1100).
time(1105).
time(1110).
time(1115).
time(1120).
time(1125).
time(1130).
time(1135).
time(1140).
time(1145).
time(1150).
time(1155).
time(1160).
time(1165).
time(1170).
time(1175).
time(1180).
time(1185).
time(1190).
time(1195).
time(1200).
time(1205).
time(1210).
time(1215).
time(1220).
time(1225).
time(1230).
time(1235).
time(1240).
time(1245).
time(1250).
time(1255).
time(1260).
time(1265).
time(1270).
time(1275).
time(1280).
time(1285).
time(1290).
time(1295).
time(1300).
time(1305).
time(1310).
time(1315).
time(1320).
time(1325).
time(1330).
time(1335).
time(1340).
time(1345).
time(1350).
time(1355).
time(1360).
time(1365).
time(1370).
time(1375).
time(1380).
time(1385).
time(1390).
time(1395).
time(1400).
time(1405).
time(1410).
time(1415).
time(1420).
time(1425).
time(1430).
time(1435).
time(1440).
time(1445).
time(1450).
time(1455).
time(1460).
time(1465).
time(1470).
time(1475).
time(1480).
time(1485).
time(1490).
time(1495).
time(1500).
time(1505).
time(1510).
time(1515).
time(1520).
time(1525).
time(1530).
time(1535).
time(1540).
time(1545).
time(1550).
time(1555).
time(1560).
time(1565).
time(1570).
time(1575).
time(1580).
time(1585).
time(1590).
time(1595).
time(1600).
time(1605).
time(1610).
time(1615).
time(1620).
time(1625).
time(1630).
time(1635).
time(1640).
time(1645).
time(1650).
time(1655).
time(1660).
time(1665).
time(1670).
time(1675).
time(1680).
time(1685).
time(1690).
time(1695).
time(1700).
time(1705).
time(1710).
time(1715).
time(1720).
time(1725).
time(1730).
time(1735).
time(1740).
time(1745).
time(1750).
time(1755).
time(1760).
time(1765).
time(1770).
time(1775).
time(1780).
time(1785).
time(1790).
time(1795).
time(1800).
time(1805).
time(1810).
time(1815).
time(1820).
time(1825).
time(1830).
time(1835).
time(1840).
time(1845).
time(1850).
time(1855).
time(1860).
time(1865).
time(1870).
time(1875).
time(1880).
time(1885).
time(1890).
time(1895).
time(1900).
time(1905).
time(1910).
time(1915).
time(1920).
time(1925).
time(1930).
time(1935).
time(1940).
time(1945).
time(1950).
time(1955).
time(1960).
time(1965).
time(1970).
time(1975).
time(1980).
time(1985).
time(1990).
time(1995).
time(2000).
time(2005).
time(2010).
time(2015).
time(2020).
time(2025).
time(2030).
time(2035).
time(2040).
time(2045).
time(2050).
time(2055).
time(2060).
time(2065).
time(2070).
time(2075).
time(2080).
time(2085).
time(2090).
time(2095).
time(2100).
time(2105).
time(2110).
time(2115).
time(2120).
time(2125).
time(2130).
time(2135).
time(2140).
time(2145).
time(2150).
time(2155).
time(2160).
time(2165).
time(2170).
time(2175).
time(2180).
time(2185).
time(2190).
time(2195).
time(2200).
time(2205).
time(2210).
time(2215).
time(2220).
time(2225).
time(2230).
time(2235).
time(2240).
time(2245).
time(2250).
time(2255).
time(2260).
time(2265).
time(2270).
time(2275).
time(2280).
time(2285).
time(2290).
time(2295).
time(2300).
time(2305).
time(2310).
time(2315).
time(2320).
time(2325).
time(2330).
time(2335).
time(2340).
time(2345).
time(2350).
time(2355).
time(2360).
time(2365).
time(2370).
time(2375).
time(2380).
time(2385).
time(2390).
time(2395).
time(2400).
time(2405).
time(2410).
time(2415).
time(2420).
time(2425).
time(2430).
time(2435).
time(2440).
time(2445).
time(2450).
time(2455).
time(2460).
time(2465).
time(2470).
time(2475).
time(2480).
time(2485).
time(2490).
time(2495).
time(2500).
time(2505).
time(2510).
time(2515).
time(2520).
time(2525).
time(2530).
time(2535).
time(2540).
time(2545).
time(2550).
time(2555).
time(2560).
time(2565).
time(2570).
time(2575).
time(2580).
time(2585).
time(2590).
time(2595).
time(2600).
time(2605).
time(2610).
time(2615).
time(2620).
time(2625).
time(2630).
time(2635).
time(2640).
time(2645).
time(2650).
time(2655).
time(2660).
time(2665).
time(2670).
time(2675).
time(2680).
time(2685).
time(2690).
time(2695).
time(2700).
time(2705).
time(2710).
time(2715).
time(2720).
time(2725).
time(2730).
time(2735).
time(2740).
time(2745).
time(2750).
time(2755).
time(2760).
time(2765).
time(2770).
time(2775).
time(2780).
time(2785).
time(2790).
time(2795).
time(2800).
time(2805).
time(2810).
time(2815).
time(2820).
time(2825).
time(2830).
time(2835).
time(2840).
time(2845).
time(2850).
time(2855).
time(2860).
time(2865).
time(2870).
time(2875).
time(2880).
time(2885).
time(2890).
time(2895).
time(2900).
time(2905).
time(2910).
time(2915).
time(2920).
time(2925).
time(2930).
time(2935).
time(2940).
time(2945).
time(2950).
time(2955).
time(2960).
time(2965).
time(2970).
time(2975).
time(2980).
time(2985).
time(2990).
time(2995).
time(3000).
time(3005).
time(3010).
time(3015).
time(3020).
time(3025).
time(3030).
time(3035).
time(3040).
time(3045).
time(3050).
time(3055).
time(3060).
time(3065).
time(3070).
time(3075).
time(3080).
time(3085).
time(3090).
time(3095).
time(3100).
time(3105).
time(3110).
time(3115).
time(3120).
time(3125).
time(3130).
time(3135).
time(3140).
time(3145).
time(3150).
time(3155).
time(3160).
time(3165).
time(3170).
time(3175).
time(3180).
time(3185).
time(3190).
time(3195).
time(3200).
time(3205).
time(3210).
time(3215).
time(3220).
time(3225).
time(3230).
time(3235).
time(3240).
time(3245).
time(3250).
time(3255).
time(3260).
time(3265).
time(3270).
time(3275).
time(3280).
time(3285).
time(3290).
time(3295).
time(3300).
time(3305).
time(3310).
time(3315).
time(3320).
time(3325).
time(3330).
time(3335).
time(3340).
time(3345).
time(3350).
time(3355).
time(3360).
time(3365).
time(3370).
time(3375).
time(3380).
time(3385).
capacity("15", 11).
maxTrafficTravelTime("15", 730).
heavyTrafficTravelTime("15", 55).
mediumTrafficTravelTime("15", 45).
lightTrafficTravelTime("15", 40).
heavyTrafficThreshold("15", 8, 11).
mediumTrafficThreshold("15", 5, 8).
lightTrafficThreshold("15", 0, 5).
capacity("[17|71]", 48).
maxTrafficTravelTime("[17|71]", 420).
heavyTrafficTravelTime("[17|71]", 80).
mediumTrafficTravelTime("[17|71]", 55).
lightTrafficTravelTime("[17|71]", 50).
heavyTrafficThreshold("[17|71]", 34, 48).
mediumTrafficThreshold("[17|71]", 20, 34).
lightTrafficThreshold("[17|71]", 0, 20).
capacity("m90", 2).
maxTrafficTravelTime("m90", 15).
heavyTrafficTravelTime("m90", 10).
mediumTrafficTravelTime("m90", 5).
lightTrafficTravelTime("m90", 5).
heavyTrafficThreshold("m90", 2, 2).
mediumTrafficThreshold("m90", 1, 2).
lightTrafficThreshold("m90", 0, 1).
capacity("[89[0]|20002+89[1][0]|89[1][1]]", 20).
maxTrafficTravelTime("[89[0]|20002+89[1][0]|89[1][1]]", 135).
heavyTrafficTravelTime("[89[0]|20002+89[1][0]|89[1][1]]", 40).
mediumTrafficTravelTime("[89[0]|20002+89[1][0]|89[1][1]]", 20).
lightTrafficTravelTime("[89[0]|20002+89[1][0]|89[1][1]]", 15).
heavyTrafficThreshold("[89[0]|20002+89[1][0]|89[1][1]]", 14, 20).
mediumTrafficThreshold("[89[0]|20002+89[1][0]|89[1][1]]", 8, 14).
lightTrafficThreshold("[89[0]|20002+89[1][0]|89[1][1]]", 0, 8).
capacity("[13|104]", 7).
maxTrafficTravelTime("[13|104]", 115).
heavyTrafficTravelTime("[13|104]", 45).
mediumTrafficTravelTime("[13|104]", 40).
lightTrafficTravelTime("[13|104]", 35).
heavyTrafficThreshold("[13|104]", 5, 7).
mediumTrafficThreshold("[13|104]", 3, 5).
lightTrafficThreshold("[13|104]", 0, 3).
capacity("54", 74).
maxTrafficTravelTime("54", 3175).
heavyTrafficTravelTime("54", 75).
mediumTrafficTravelTime("54", 40).
lightTrafficTravelTime("54", 25).
heavyTrafficThreshold("54", 52, 74).
mediumTrafficThreshold("54", 30, 52).
lightTrafficThreshold("54", 0, 30).
capacity("[200|60]", 36).
maxTrafficTravelTime("[200|60]", 520).
heavyTrafficTravelTime("[200|60]", 75).
mediumTrafficTravelTime("[200|60]", 40).
lightTrafficTravelTime("[200|60]", 25).
heavyTrafficThreshold("[200|60]", 26, 36).
mediumTrafficThreshold("[200|60]", 15, 26).
lightTrafficThreshold("[200|60]", 0, 15).
capacity("62", 24).
maxTrafficTravelTime("62", 520).
heavyTrafficTravelTime("62", 50).
mediumTrafficTravelTime("62", 25).
lightTrafficTravelTime("62", 20).
heavyTrafficThreshold("62", 17, 24).
mediumTrafficThreshold("62", 10, 17).
lightTrafficThreshold("62", 0, 10).
capacity("180", 25).
maxTrafficTravelTime("180", 520).
heavyTrafficTravelTime("180", 50).
mediumTrafficTravelTime("180", 25).
lightTrafficTravelTime("180", 20).
heavyTrafficThreshold("180", 18, 25).
mediumTrafficThreshold("180", 10, 18).
lightTrafficThreshold("180", 0, 10).
capacity("1b", 14).
maxTrafficTravelTime("1b", 3115).
heavyTrafficTravelTime("1b", 45).
mediumTrafficTravelTime("1b", 40).
lightTrafficTravelTime("1b", 35).
heavyTrafficThreshold("1b", 10, 14).
mediumTrafficThreshold("1b", 6, 10).
lightTrafficThreshold("1b", 0, 6).
capacity("[109[0]|109[1][0]+20003|109[1][1]]", 9).
maxTrafficTravelTime("[109[0]|109[1][0]+20003|109[1][1]]", 505).
heavyTrafficTravelTime("[109[0]|109[1][0]+20003|109[1][1]]", 20).
mediumTrafficTravelTime("[109[0]|109[1][0]+20003|109[1][1]]", 10).
lightTrafficTravelTime("[109[0]|109[1][0]+20003|109[1][1]]", 10).
heavyTrafficThreshold("[109[0]|109[1][0]+20003|109[1][1]]", 7, 9).
mediumTrafficThreshold("[109[0]|109[1][0]+20003|109[1][1]]", 4, 7).
lightTrafficThreshold("[109[0]|109[1][0]+20003|109[1][1]]", 0, 4).
capacity("42", 4).
maxTrafficTravelTime("42", 555).
heavyTrafficTravelTime("42", 10).
mediumTrafficTravelTime("42", 5).
lightTrafficTravelTime("42", 5).
heavyTrafficThreshold("42", 3, 4).
mediumTrafficThreshold("42", 2, 3).
lightTrafficThreshold("42", 0, 2).
capacity("14", 9).
maxTrafficTravelTime("14", 730).
heavyTrafficTravelTime("14", 20).
mediumTrafficTravelTime("14", 10).
lightTrafficTravelTime("14", 10).
heavyTrafficThreshold("14", 7, 9).
mediumTrafficThreshold("14", 4, 7).
lightTrafficThreshold("14", 0, 4).
capacity("124", 6).
maxTrafficTravelTime("124", 3195).
heavyTrafficTravelTime("124", 40).
mediumTrafficTravelTime("124", 35).
lightTrafficTravelTime("124", 35).
heavyTrafficThreshold("124", 5, 6).
mediumTrafficThreshold("124", 3, 5).
lightTrafficThreshold("124", 0, 3).
capacity("201", 84).
maxTrafficTravelTime("201", 545).
heavyTrafficTravelTime("201", 90).
mediumTrafficTravelTime("201", 60).
lightTrafficTravelTime("201", 50).
heavyTrafficThreshold("201", 59, 84).
mediumTrafficThreshold("201", 34, 59).
lightTrafficThreshold("201", 0, 34).
capacity("24", 17).
maxTrafficTravelTime("24", 485).
heavyTrafficTravelTime("24", 35).
mediumTrafficTravelTime("24", 20).
lightTrafficTravelTime("24", 15).
heavyTrafficThreshold("24", 12, 17).
mediumTrafficThreshold("24", 7, 12).
lightTrafficThreshold("24", 0, 7).
capacity("(53cd|53[0])", 2).
maxTrafficTravelTime("(53cd|53[0])", 370).
heavyTrafficTravelTime("(53cd|53[0])", 15).
mediumTrafficTravelTime("(53cd|53[0])", 10).
lightTrafficTravelTime("(53cd|53[0])", 5).
heavyTrafficThreshold("(53cd|53[0])", 2, 2).
mediumTrafficThreshold("(53cd|53[0])", 1, 2).
lightTrafficThreshold("(53cd|53[0])", 0, 1).
capacity("[202|34]", 84).
maxTrafficTravelTime("[202|34]", 555).
heavyTrafficTravelTime("[202|34]", 85).
mediumTrafficTravelTime("[202|34]", 60).
lightTrafficTravelTime("[202|34]", 50).
heavyTrafficThreshold("[202|34]", 59, 84).
mediumTrafficThreshold("[202|34]", 34, 59).
lightTrafficThreshold("[202|34]", 0, 34).
capacity("(53cd|53[0]|53[1][0]|53[1][1][0]|77[1][0])", 10).
maxTrafficTravelTime("(53cd|53[0]|53[1][0]|53[1][1][0]|77[1][0])", 430).
heavyTrafficTravelTime("(53cd|53[0]|53[1][0]|53[1][1][0]|77[1][0])", 15).
mediumTrafficTravelTime("(53cd|53[0]|53[1][0]|53[1][1][0]|77[1][0])", 10).
lightTrafficTravelTime("(53cd|53[0]|53[1][0]|53[1][1][0]|77[1][0])", 5).
heavyTrafficThreshold("(53cd|53[0]|53[1][0]|53[1][1][0]|77[1][0])", 7, 10).
mediumTrafficThreshold("(53cd|53[0]|53[1][0]|53[1][1][0]|77[1][0])", 4, 7).
lightTrafficThreshold("(53cd|53[0]|53[1][0]|53[1][1][0]|77[1][0])", 0, 4).
capacity("[116|46]", 34).
maxTrafficTravelTime("[116|46]", 540).
heavyTrafficTravelTime("[116|46]", 65).
mediumTrafficTravelTime("[116|46]", 50).
lightTrafficTravelTime("[116|46]", 45).
heavyTrafficThreshold("[116|46]", 24, 34).
mediumTrafficThreshold("[116|46]", 14, 24).
lightTrafficThreshold("[116|46]", 0, 14).
capacity("77[1][1]", 58).
maxTrafficTravelTime("77[1][1]", 465).
heavyTrafficTravelTime("77[1][1]", 115).
mediumTrafficTravelTime("77[1][1]", 60).
lightTrafficTravelTime("77[1][1]", 40).
heavyTrafficThreshold("77[1][1]", 41, 58).
mediumTrafficThreshold("77[1][1]", 24, 41).
lightTrafficThreshold("77[1][1]", 0, 24).
capacity("191", 21).
maxTrafficTravelTime("191", 410).
heavyTrafficTravelTime("191", 75).
mediumTrafficTravelTime("191", 55).
lightTrafficTravelTime("191", 45).
heavyTrafficThreshold("191", 15, 21).
mediumTrafficThreshold("191", 9, 15).
lightTrafficThreshold("191", 0, 9).
capacity("(77[1][0])", 6).
maxTrafficTravelTime("(77[1][0])", 250).
heavyTrafficTravelTime("(77[1][0])", 15).
mediumTrafficTravelTime("(77[1][0])", 10).
lightTrafficTravelTime("(77[1][0])", 5).
heavyTrafficThreshold("(77[1][0])", 5, 6).
mediumTrafficThreshold("(77[1][0])", 3, 5).
lightTrafficThreshold("(77[1][0])", 0, 3).
capacity("57[0]", 22).
maxTrafficTravelTime("57[0]", 165).
heavyTrafficTravelTime("57[0]", 45).
mediumTrafficTravelTime("57[0]", 25).
lightTrafficTravelTime("57[0]", 15).
heavyTrafficThreshold("57[0]", 16, 22).
mediumTrafficThreshold("57[0]", 9, 16).
lightTrafficThreshold("57[0]", 0, 9).
capacity("10", 11).
maxTrafficTravelTime("10", 480).
heavyTrafficTravelTime("10", 25).
mediumTrafficTravelTime("10", 15).
lightTrafficTravelTime("10", 10).
heavyTrafficThreshold("10", 8, 11).
mediumTrafficThreshold("10", 5, 8).
lightTrafficThreshold("10", 0, 5).
capacity("21b", 15).
maxTrafficTravelTime("21b", 245).
heavyTrafficTravelTime("21b", 35).
mediumTrafficTravelTime("21b", 20).
lightTrafficTravelTime("21b", 15).
heavyTrafficThreshold("21b", 11, 15).
mediumTrafficThreshold("21b", 6, 11).
lightTrafficThreshold("21b", 0, 6).
capacity("204a[0]", 69).
maxTrafficTravelTime("204a[0]", 3200).
heavyTrafficTravelTime("204a[0]", 80).
mediumTrafficTravelTime("204a[0]", 55).
lightTrafficTravelTime("204a[0]", 50).
heavyTrafficThreshold("204a[0]", 49, 69).
mediumTrafficThreshold("204a[0]", 28, 49).
lightTrafficThreshold("204a[0]", 0, 28).
capacity("72[1]", 4).
maxTrafficTravelTime("72[1]", 480).
heavyTrafficTravelTime("72[1]", 35).
mediumTrafficTravelTime("72[1]", 35).
lightTrafficTravelTime("72[1]", 35).
heavyTrafficThreshold("72[1]", 3, 4).
mediumTrafficThreshold("72[1]", 2, 3).
lightTrafficThreshold("72[1]", 0, 2).
capacity("58[1]", 22).
maxTrafficTravelTime("58[1]", 155).
heavyTrafficTravelTime("58[1]", 45).
mediumTrafficTravelTime("58[1]", 25).
lightTrafficTravelTime("58[1]", 15).
heavyTrafficThreshold("58[1]", 16, 22).
mediumTrafficThreshold("58[1]", 9, 16).
lightTrafficThreshold("58[1]", 0, 9).
capacity("134", 1).
maxTrafficTravelTime("134", 515).
heavyTrafficTravelTime("134", 5).
mediumTrafficTravelTime("134", 5).
lightTrafficTravelTime("134", 5).
heavyTrafficThreshold("134", 1, 1).
mediumTrafficThreshold("134", 1, 1).
lightTrafficThreshold("134", 0, 1).
capacity("224[0]", 37).
maxTrafficTravelTime("224[0]", 145).
heavyTrafficTravelTime("224[0]", 75).
mediumTrafficTravelTime("224[0]", 40).
lightTrafficTravelTime("224[0]", 25).
heavyTrafficThreshold("224[0]", 26, 37).
mediumTrafficThreshold("224[0]", 15, 26).
lightTrafficThreshold("224[0]", 0, 15).
capacity("33", 14).
maxTrafficTravelTime("33", 445).
heavyTrafficTravelTime("33", 30).
mediumTrafficTravelTime("33", 15).
lightTrafficTravelTime("33", 10).
heavyTrafficThreshold("33", 10, 14).
mediumTrafficThreshold("33", 6, 10).
lightTrafficThreshold("33", 0, 6).
capacity("159", 28).
maxTrafficTravelTime("159", 555).
heavyTrafficTravelTime("159", 55).
mediumTrafficTravelTime("159", 30).
lightTrafficTravelTime("159", 20).
heavyTrafficThreshold("159", 20, 28).
mediumTrafficThreshold("159", 12, 20).
lightTrafficThreshold("159", 0, 12).
capacity("(53cd|53[0]|53[1][0])", 2).
maxTrafficTravelTime("(53cd|53[0]|53[1][0])", 495).
heavyTrafficTravelTime("(53cd|53[0]|53[1][0])", 15).
mediumTrafficTravelTime("(53cd|53[0]|53[1][0])", 10).
lightTrafficTravelTime("(53cd|53[0]|53[1][0])", 5).
heavyTrafficThreshold("(53cd|53[0]|53[1][0])", 2, 2).
mediumTrafficThreshold("(53cd|53[0]|53[1][0])", 1, 2).
lightTrafficThreshold("(53cd|53[0]|53[1][0])", 0, 1).
capacity("194", 22).
maxTrafficTravelTime("194", 510).
heavyTrafficTravelTime("194", 45).
mediumTrafficTravelTime("194", 25).
lightTrafficTravelTime("194", 15).
heavyTrafficThreshold("194", 16, 22).
mediumTrafficThreshold("194", 9, 16).
lightTrafficThreshold("194", 0, 9).
capacity("103", 34).
maxTrafficTravelTime("103", 525).
heavyTrafficTravelTime("103", 65).
mediumTrafficTravelTime("103", 50).
lightTrafficTravelTime("103", 45).
heavyTrafficThreshold("103", 24, 34).
mediumTrafficThreshold("103", 14, 24).
lightTrafficThreshold("103", 0, 14).
capacity("35", 14).
maxTrafficTravelTime("35", 620).
heavyTrafficTravelTime("35", 30).
mediumTrafficTravelTime("35", 15).
lightTrafficTravelTime("35", 10).
heavyTrafficThreshold("35", 10, 14).
mediumTrafficThreshold("35", 6, 10).
lightTrafficThreshold("35", 0, 6).
capacity("91", 5).
maxTrafficTravelTime("91", 500).
heavyTrafficTravelTime("91", 10).
mediumTrafficTravelTime("91", 5).
lightTrafficTravelTime("91", 5).
heavyTrafficThreshold("91", 4, 5).
mediumTrafficThreshold("91", 2, 4).
lightTrafficThreshold("91", 0, 2).
capacity("1", 2).
maxTrafficTravelTime("1", 3115).
heavyTrafficTravelTime("1", 35).
mediumTrafficTravelTime("1", 35).
lightTrafficTravelTime("1", 35).
heavyTrafficThreshold("1", 2, 2).
mediumTrafficThreshold("1", 1, 2).
lightTrafficThreshold("1", 0, 1).
capacity("[181|18]", 22).
maxTrafficTravelTime("[181|18]", 240).
heavyTrafficTravelTime("[181|18]", 55).
mediumTrafficTravelTime("[181|18]", 45).
lightTrafficTravelTime("[181|18]", 40).
heavyTrafficThreshold("[181|18]", 16, 22).
mediumTrafficThreshold("[181|18]", 9, 16).
lightTrafficThreshold("[181|18]", 0, 9).
capacity("161", 72).
maxTrafficTravelTime("161", 515).
heavyTrafficTravelTime("161", 50).
mediumTrafficTravelTime("161", 25).
lightTrafficTravelTime("161", 20).
heavyTrafficThreshold("161", 51, 72).
mediumTrafficThreshold("161", 29, 51).
lightTrafficThreshold("161", 0, 29).
capacity("131", 40).
maxTrafficTravelTime("131", 75).
mediumTrafficTravelTime("131", 40).
lightTrafficTravelTime("131", 30).
heavyTrafficThreshold("131", 28, 40).
mediumTrafficThreshold("131", 16, 28).
lightTrafficThreshold("131", 0, 16).
capacity("209", 147).
maxTrafficTravelTime("209", 530).
heavyTrafficTravelTime("209", 100).
mediumTrafficTravelTime("209", 50).
lightTrafficTravelTime("209", 35).
heavyTrafficThreshold("209", 103, 147).
mediumTrafficThreshold("209", 59, 103).
lightTrafficThreshold("209", 0, 59).
capacity("38", 16).
maxTrafficTravelTime("38", 670).
heavyTrafficTravelTime("38", 35).
mediumTrafficTravelTime("38", 20).
lightTrafficTravelTime("38", 15).
heavyTrafficThreshold("38", 12, 16).
mediumTrafficThreshold("38", 7, 12).
lightTrafficThreshold("38", 0, 7).
capacity("197", 25).
maxTrafficTravelTime("197", 160).
heavyTrafficTravelTime("197", 50).
mediumTrafficTravelTime("197", 25).
lightTrafficTravelTime("197", 20).
heavyTrafficThreshold("197", 18, 25).
mediumTrafficThreshold("197", 10, 18).
lightTrafficThreshold("197", 0, 10).
capacity("173", 33).
maxTrafficTravelTime("173", 520).
heavyTrafficTravelTime("173", 70).
mediumTrafficTravelTime("173", 35).
lightTrafficTravelTime("173", 25).
heavyTrafficThreshold("173", 24, 33).
mediumTrafficThreshold("173", 14, 24).
lightTrafficThreshold("173", 0, 14).
capacity("(77[1][0]|77ab|77bc)", 6).
maxTrafficTravelTime("(77[1][0]|77ab|77bc)", 235).
heavyTrafficTravelTime("(77[1][0]|77ab|77bc)", 15).
mediumTrafficTravelTime("(77[1][0]|77ab|77bc)", 10).
lightTrafficTravelTime("(77[1][0]|77ab|77bc)", 5).
heavyTrafficThreshold("(77[1][0]|77ab|77bc)", 5, 6).
mediumTrafficThreshold("(77[1][0]|77ab|77bc)", 3, 5).
lightTrafficThreshold("(77[1][0]|77ab|77bc)", 0, 3).
capacity("204[1][1]", 162).
maxTrafficTravelTime("204[1][1]", 3185).
heavyTrafficTravelTime("204[1][1]", 105).
mediumTrafficTravelTime("204[1][1]", 55).
lightTrafficTravelTime("204[1][1]", 35).
heavyTrafficThreshold("204[1][1]", 114, 162).
mediumTrafficThreshold("204[1][1]", 65, 114).
lightTrafficThreshold("204[1][1]", 0, 65).
capacity("[68|11]", 24).
maxTrafficTravelTime("[68|11]", 540).
heavyTrafficTravelTime("[68|11]", 55).
mediumTrafficTravelTime("[68|11]", 45).
lightTrafficTravelTime("[68|11]", 40).
heavyTrafficThreshold("[68|11]", 17, 24).
mediumTrafficThreshold("[68|11]", 10, 17).
lightTrafficThreshold("[68|11]", 0, 10).
capacity("21a", 2).
maxTrafficTravelTime("21a", 235).
heavyTrafficTravelTime("21a", 5).
mediumTrafficTravelTime("21a", 5).
lightTrafficTravelTime("21a", 5).
heavyTrafficThreshold("21a", 2, 2).
mediumTrafficThreshold("21a", 1, 2).
lightTrafficThreshold("21a", 0, 1).
capacity("224[1]", 16).
maxTrafficTravelTime("224[1]", 180).
heavyTrafficTravelTime("224[1]", 35).
mediumTrafficTravelTime("224[1]", 20).
lightTrafficTravelTime("224[1]", 15).
heavyTrafficThreshold("224[1]", 12, 16).
mediumTrafficThreshold("224[1]", 7, 12).
lightTrafficThreshold("224[1]", 0, 7).
capacity("61", 24).
maxTrafficTravelTime("61", 20).
lightTrafficTravelTime("61", 20).
heavyTrafficThreshold("61", 17, 24).
mediumTrafficThreshold("61", 10, 17).
lightTrafficThreshold("61", 0, 10).
capacity("84", 16).
maxTrafficTravelTime("84", 515).
heavyTrafficTravelTime("84", 35).
mediumTrafficTravelTime("84", 20).
lightTrafficTravelTime("84", 15).
heavyTrafficThreshold("84", 12, 16).
mediumTrafficThreshold("84", 7, 12).
lightTrafficThreshold("84", 0, 7).
capacity("72[0]", 63).
maxTrafficTravelTime("72[0]", 485).
heavyTrafficTravelTime("72[0]", 75).
mediumTrafficTravelTime("72[0]", 55).
lightTrafficTravelTime("72[0]", 45).
heavyTrafficThreshold("72[0]", 45, 63).
mediumTrafficThreshold("72[0]", 26, 45).
lightTrafficThreshold("72[0]", 0, 26).
capacity("58[0]", 7).
maxTrafficTravelTime("58[0]", 145).
heavyTrafficTravelTime("58[0]", 15).
mediumTrafficTravelTime("58[0]", 10).
lightTrafficTravelTime("58[0]", 5).
heavyTrafficThreshold("58[0]", 5, 7).
mediumTrafficThreshold("58[0]", 3, 5).
lightTrafficThreshold("58[0]", 0, 3).
capacity("171", 21).
maxTrafficTravelTime("171", 55).
lightTrafficTravelTime("171", 45).
heavyTrafficThreshold("171", 15, 21).
mediumTrafficThreshold("171", 9, 15).
lightTrafficThreshold("171", 0, 9).
capacity("39", 5).
maxTrafficTravelTime("39", 570).
heavyTrafficTravelTime("39", 10).
mediumTrafficTravelTime("39", 5).
lightTrafficTravelTime("39", 5).
heavyTrafficThreshold("39", 4, 5).
mediumTrafficThreshold("39", 2, 4).
lightTrafficThreshold("39", 0, 2).
capacity("19", 8).
maxTrafficTravelTime("19", 490).
heavyTrafficTravelTime("19", 20).
mediumTrafficTravelTime("19", 10).
lightTrafficTravelTime("19", 10).
heavyTrafficThreshold("19", 6, 8).
mediumTrafficThreshold("19", 4, 6).
lightTrafficThreshold("19", 0, 4).
capacity("186", 7).
maxTrafficTravelTime("186", 500).
heavyTrafficTravelTime("186", 15).
mediumTrafficTravelTime("186", 10).
lightTrafficTravelTime("186", 5).
heavyTrafficThreshold("186", 5, 7).
mediumTrafficThreshold("186", 3, 5).
lightTrafficThreshold("186", 0, 3).
capacity("79", 18).
maxTrafficTravelTime("79", 510).
heavyTrafficTravelTime("79", 40).
mediumTrafficTravelTime("79", 20).
lightTrafficTravelTime("79", 15).
heavyTrafficThreshold("79", 13, 18).
mediumTrafficThreshold("79", 8, 13).
lightTrafficThreshold("79", 0, 8).
capacity("65", 12).
maxTrafficTravelTime("65", 505).
heavyTrafficTravelTime("65", 25).
mediumTrafficTravelTime("65", 15).
lightTrafficTravelTime("65", 10).
heavyTrafficThreshold("65", 9, 12).
mediumTrafficThreshold("65", 5, 9).
lightTrafficThreshold("65", 0, 5).
capacity("117", 16).
maxTrafficTravelTime("117", 60).
mediumTrafficTravelTime("117", 50).
lightTrafficTravelTime("117", 45).
heavyTrafficThreshold("117", 12, 16).
mediumTrafficThreshold("117", 7, 12).
lightTrafficThreshold("117", 0, 7).
capacity("[189[0]|189[1][0]+20000|189[1][1]]", 25).
maxTrafficTravelTime("[189[0]|189[1][0]+20000|189[1][1]]", 415).
heavyTrafficTravelTime("[189[0]|189[1][0]+20000|189[1][1]]", 80).
mediumTrafficTravelTime("[189[0]|189[1][0]+20000|189[1][1]]", 55).
lightTrafficTravelTime("[189[0]|189[1][0]+20000|189[1][1]]", 50).
heavyTrafficThreshold("[189[0]|189[1][0]+20000|189[1][1]]", 18, 25).
mediumTrafficThreshold("[189[0]|189[1][0]+20000|189[1][1]]", 10, 18).
lightTrafficThreshold("[189[0]|189[1][0]+20000|189[1][1]]", 0, 10).
capacity("85", 123).
maxTrafficTravelTime("85", 60).
lightTrafficTravelTime("85", 60).
heavyTrafficThreshold("85", 87, 123).
mediumTrafficThreshold("85", 50, 87).
lightTrafficThreshold("85", 0, 50).
capacity("[3|2]", 12).
maxTrafficTravelTime("[3|2]", 540).
heavyTrafficTravelTime("[3|2]", 45).
mediumTrafficTravelTime("[3|2]", 40).
lightTrafficTravelTime("[3|2]", 35).
heavyTrafficThreshold("[3|2]", 9, 12).
mediumTrafficThreshold("[3|2]", 5, 9).
lightTrafficThreshold("[3|2]", 0, 5).
capacity("204b[0]", 3).
maxTrafficTravelTime("204b[0]", 3155).
heavyTrafficTravelTime("204b[0]", 5).
mediumTrafficTravelTime("204b[0]", 5).
lightTrafficTravelTime("204b[0]", 5).
heavyTrafficThreshold("204b[0]", 3, 3).
mediumTrafficThreshold("204b[0]", 2, 3).
lightTrafficThreshold("204b[0]", 0, 2).
capacity("57[1]", 3).
maxTrafficTravelTime("57[1]", 165).
heavyTrafficTravelTime("57[1]", 10).
mediumTrafficTravelTime("57[1]", 5).
lightTrafficTravelTime("57[1]", 5).
heavyTrafficThreshold("57[1]", 3, 3).
mediumTrafficThreshold("57[1]", 2, 3).
lightTrafficThreshold("57[1]", 0, 2).
capacity("122", 78).
maxTrafficTravelTime("122", 2295).
heavyTrafficTravelTime("122", 55).
mediumTrafficTravelTime("122", 30).
lightTrafficTravelTime("122", 20).
heavyTrafficThreshold("122", 55, 78).
mediumTrafficThreshold("122", 32, 55).
lightTrafficThreshold("122", 0, 32).
capacity("[87[0]|20001+87[1][0]|87[1][1]]", 4).
maxTrafficTravelTime("[87[0]|20001+87[1][0]|87[1][1]]", 5).
lightTrafficTravelTime("[87[0]|20001+87[1][0]|87[1][1]]", 5).
heavyTrafficThreshold("[87[0]|20001+87[1][0]|87[1][1]]", 3, 4).
mediumTrafficThreshold("[87[0]|20001+87[1][0]|87[1][1]]", 2, 3).
lightTrafficThreshold("[87[0]|20001+87[1][0]|87[1][1]]", 0, 2).
capacity("[80|127]", 17).
maxTrafficTravelTime("[80|127]", 245).
heavyTrafficTravelTime("[80|127]", 35).
mediumTrafficTravelTime("[80|127]", 20).
lightTrafficTravelTime("[80|127]", 15).
heavyTrafficThreshold("[80|127]", 12, 17).
mediumTrafficThreshold("[80|127]", 7, 12).
lightTrafficThreshold("[80|127]", 0, 7).
capacity("86", 120).
maxTrafficTravelTime("86", 480).
heavyTrafficTravelTime("86", 80).
mediumTrafficTravelTime("86", 40).
lightTrafficTravelTime("86", 30).
heavyTrafficThreshold("86", 84, 120).
mediumTrafficThreshold("86", 48, 84).
lightTrafficThreshold("86", 0, 48).
capacity("113", 30).
maxTrafficTravelTime("113", 535).
heavyTrafficTravelTime("113", 50).
mediumTrafficTravelTime("113", 40).
lightTrafficTravelTime("113", 40).
heavyTrafficThreshold("113", 21, 30).
mediumTrafficThreshold("113", 12, 21).
lightTrafficThreshold("113", 0, 12).
capacity("119", 19).
maxTrafficTravelTime("119", 110).
heavyTrafficTravelTime("119", 40).
mediumTrafficTravelTime("119", 20).
lightTrafficTravelTime("119", 15).
heavyTrafficThreshold("119", 14, 19).
mediumTrafficThreshold("119", 8, 14).
lightTrafficThreshold("119", 0, 8).
capacity("120", 19).
maxTrafficTravelTime("120", 510).
heavyTrafficTravelTime("120", 40).
mediumTrafficTravelTime("120", 20).
lightTrafficTravelTime("120", 15).
heavyTrafficThreshold("120", 14, 19).
mediumTrafficThreshold("120", 8, 14).
lightTrafficThreshold("120", 0, 8).
capacity("67", 26).
maxTrafficTravelTime("67", 220).
heavyTrafficTravelTime("67", 30).
mediumTrafficTravelTime("67", 15).
lightTrafficTravelTime("67", 10).
heavyTrafficThreshold("67", 19, 26).
mediumTrafficThreshold("67", 11, 19).
lightTrafficThreshold("67", 0, 11).
capacity("204[1][0]", 2).
maxTrafficTravelTime("204[1][0]", 3185).
heavyTrafficTravelTime("204[1][0]", 35).
mediumTrafficTravelTime("204[1][0]", 35).
lightTrafficTravelTime("204[1][0]", 35).
heavyTrafficThreshold("204[1][0]", 2, 2).
mediumTrafficThreshold("204[1][0]", 1, 2).
lightTrafficThreshold("204[1][0]", 0, 1).
capacity("78[1][1]", 8).
maxTrafficTravelTime("78[1][1]", 375).
heavyTrafficTravelTime("78[1][1]", 20).
mediumTrafficTravelTime("78[1][1]", 10).
lightTrafficTravelTime("78[1][1]", 10).
heavyTrafficThreshold("78[1][1]", 6, 8).
mediumTrafficThreshold("78[1][1]", 4, 6).
lightTrafficThreshold("78[1][1]", 0, 4).
capacity("[22|59]", 18).
maxTrafficTravelTime("[22|59]", 490).
heavyTrafficTravelTime("[22|59]", 40).
mediumTrafficTravelTime("[22|59]", 20).
lightTrafficTravelTime("[22|59]", 15).
heavyTrafficThreshold("[22|59]", 13, 18).
mediumTrafficThreshold("[22|59]", 8, 13).
lightTrafficThreshold("[22|59]", 0, 8).
capacity("69", 34).
maxTrafficTravelTime("69", 540).
heavyTrafficTravelTime("69", 65).
mediumTrafficTravelTime("69", 50).
lightTrafficTravelTime("69", 45).
heavyTrafficThreshold("69", 24, 34).
mediumTrafficThreshold("69", 14, 24).
lightTrafficThreshold("69", 0, 14).
capacity("201c", 3).
maxTrafficTravelTime("201c", 530).
heavyTrafficTravelTime("201c", 35).
mediumTrafficTravelTime("201c", 35).
lightTrafficTravelTime("201c", 35).
heavyTrafficThreshold("201c", 3, 3).
mediumTrafficThreshold("201c", 2, 3).
lightTrafficThreshold("201c", 0, 2).
capacity("50", 15).
maxTrafficTravelTime("50", 465).
heavyTrafficTravelTime("50", 30).
mediumTrafficTravelTime("50", 15).
lightTrafficTravelTime("50", 10).
heavyTrafficThreshold("50", 11, 15).
mediumTrafficThreshold("50", 6, 11).
lightTrafficThreshold("50", 0, 6).
origin("Vittorio_Veneto_2_518", "224[1]").
enter("Vittorio_Veneto_2_518", "224[1]", 0).
exit("Vittorio_Veneto_2_518", "224[1]", 60).
enter("Vittorio_Veneto_2_518", "[181|18]", 60).
exit("Vittorio_Veneto_2_518", "[181|18]", 135).
enter("Vittorio_Veneto_2_518", "[17|71]", 135).
exit("Vittorio_Veneto_2_518", "[17|71]", 215).
enter("Vittorio_Veneto_2_518", "67", 215).
exit("Vittorio_Veneto_2_518", "67", 245).
enter("Vittorio_Veneto_2_518", "[80|127]", 245).
exit("Vittorio_Veneto_2_518", "[80|127]", 310).
enter("Vittorio_Veneto_2_518", "(77[1][0])", 310).
exit("Vittorio_Veneto_2_518", "(77[1][0])", 330).
enter("Vittorio_Veneto_2_518", "77[1][1]", 330).
exit("Vittorio_Veneto_2_518", "77[1][1]", 445).
origin("Costa_50_1328", "120").
enter("Costa_50_1328", "120", 0).
exit("Costa_50_1328", "120", 75).
enter("Costa_50_1328", "65", 75).
exit("Costa_50_1328", "65", 120).
enter("Costa_50_1328", "[200|60]", 120).
exit("Costa_50_1328", "[200|60]", 255).
origin("Costa_50_1283", "120").
enter("Costa_50_1283", "120", 0).
exit("Costa_50_1283", "120", 15).
enter("Costa_50_1283", "65", 15).
exit("Costa_50_1283", "65", 35).
enter("Costa_50_1283", "[200|60]", 35).
exit("Costa_50_1283", "[200|60]", 75).
origin("Vittorio_Veneto_2_497", "[17|71]").
enter("Vittorio_Veneto_2_497", "[17|71]", 0).
exit("Vittorio_Veneto_2_497", "[17|71]", 80).
enter("Vittorio_Veneto_2_497", "67", 80).
exit("Vittorio_Veneto_2_497", "67", 110).
enter("Vittorio_Veneto_2_497", "[80|127]", 110).
exit("Vittorio_Veneto_2_497", "[80|127]", 175).
enter("Vittorio_Veneto_2_497", "(77[1][0])", 175).
exit("Vittorio_Veneto_2_497", "(77[1][0])", 195).
enter("Vittorio_Veneto_2_497", "77[1][1]", 195).
exit("Vittorio_Veneto_2_497", "77[1][1]", 255).
origin("Togliatti_11_691", "85").
enter("Togliatti_11_691", "85", 0).
exit("Togliatti_11_691", "85", 60).
enter("Togliatti_11_691", "72[0]", 60).
exit("Togliatti_11_691", "72[0]", 185).
enter("Togliatti_11_691", "72[1]", 185).
exit("Togliatti_11_691", "72[1]", 245).
enter("Togliatti_11_691", "69", 245).
exit("Togliatti_11_691", "69", 315).
enter("Togliatti_11_691", "161", 315).
exit("Togliatti_11_691", "161", 375).
enter("Togliatti_11_691", "194", 375).
exit("Togliatti_11_691", "194", 390).
enter("Togliatti_11_691", "91", 390).
exit("Togliatti_11_691", "91", 395).
enter("Togliatti_11_691", "186", 395).
exit("Togliatti_11_691", "186", 405).
enter("Togliatti_11_691", "[109[0]|109[1][0]+20003|109[1][1]]", 405).
exit("Togliatti_11_691", "[109[0]|109[1][0]+20003|109[1][1]]", 610).
enter("Togliatti_11_691", "[116|46]", 610).
exit("Togliatti_11_691", "[116|46]", 665).
enter("Togliatti_11_691", "201", 665).
exit("Togliatti_11_691", "201", 715).
enter("Togliatti_11_691", "201c", 715).
exit("Togliatti_11_691", "201c", 765).
enter("Togliatti_11_691", "204a[0]", 765).
exit("Togliatti_11_691", "204a[0]", 955).
enter("Togliatti_11_691", "124", 955).
exit("Togliatti_11_691", "124", 2670).
origin("Costa_50_1372", "[89[0]|20002+89[1][0]|89[1][1]]").
enter("Costa_50_1372", "[89[0]|20002+89[1][0]|89[1][1]]", 0).
exit("Costa_50_1372", "[89[0]|20002+89[1][0]|89[1][1]]", 75).
enter("Costa_50_1372", "91", 75).
exit("Costa_50_1372", "91", 95).
enter("Costa_50_1372", "186", 95).
exit("Costa_50_1372", "186", 125).
enter("Costa_50_1372", "[109[0]|109[1][0]+20003|109[1][1]]", 125).
exit("Costa_50_1372", "[109[0]|109[1][0]+20003|109[1][1]]", 160).
enter("Costa_50_1372", "120", 160).
exit("Costa_50_1372", "120", 235).
enter("Costa_50_1372", "65", 235).
exit("Costa_50_1372", "65", 280).
enter("Costa_50_1372", "[200|60]", 280).
exit("Costa_50_1372", "[200|60]", 415).
origin("Vittorio_Veneto_1_529", "224[1]").
enter("Vittorio_Veneto_1_529", "224[1]", 0).
exit("Vittorio_Veneto_1_529", "224[1]", 60).
enter("Vittorio_Veneto_1_529", "[181|18]", 60).
exit("Vittorio_Veneto_1_529", "[181|18]", 135).
enter("Vittorio_Veneto_1_529", "[17|71]", 135).
exit("Vittorio_Veneto_1_529", "[17|71]", 215).
enter("Vittorio_Veneto_1_529", "86", 215).
exit("Vittorio_Veneto_1_529", "86", 245).
origin("Vittorio_Veneto_1_543", "224[0]").
enter("Vittorio_Veneto_1_543", "224[0]", 0).
exit("Vittorio_Veneto_1_543", "224[0]", 140).
enter("Vittorio_Veneto_1_543", "224[1]", 140).
exit("Vittorio_Veneto_1_543", "224[1]", 200).
enter("Vittorio_Veneto_1_543", "[181|18]", 200).
exit("Vittorio_Veneto_1_543", "[181|18]", 275).
enter("Vittorio_Veneto_1_543", "[17|71]", 275).
exit("Vittorio_Veneto_1_543", "[17|71]", 330).
enter("Vittorio_Veneto_1_543", "86", 330).
exit("Vittorio_Veneto_1_543", "86", 360).
origin("Togliatti_10_690", "85").
enter("Togliatti_10_690", "85", 0).
exit("Togliatti_10_690", "85", 60).
enter("Togliatti_10_690", "72[0]", 60).
exit("Togliatti_10_690", "72[0]", 135).
enter("Togliatti_10_690", "72[1]", 135).
exit("Togliatti_10_690", "72[1]", 175).
enter("Togliatti_10_690", "69", 175).
exit("Togliatti_10_690", "69", 270).
enter("Togliatti_10_690", "161", 270).
exit("Togliatti_10_690", "161", 295).
enter("Togliatti_10_690", "122", 295).
exit("Togliatti_10_690", "122", 395).
enter("Togliatti_10_690", "1b", 395).
exit("Togliatti_10_690", "1b", 455).
enter("Togliatti_10_690", "1", 455).
exit("Togliatti_10_690", "1", 490).
enter("Togliatti_10_690", "204a[0]", 490).
exit("Togliatti_10_690", "204a[0]", 610).
enter("Togliatti_10_690", "204b[0]", 610).
exit("Togliatti_10_690", "204b[0]", 615).
enter("Togliatti_10_690", "204[1][0]", 615).
exit("Togliatti_10_690", "204[1][0]", 650).
enter("Togliatti_10_690", "204[1][1]", 650).
exit("Togliatti_10_690", "204[1][1]", 685).
origin("Togliatti_10_382", "122").
enter("Togliatti_10_382", "122", 0).
exit("Togliatti_10_382", "122", 55).
enter("Togliatti_10_382", "1b", 55).
exit("Togliatti_10_382", "1b", 115).
enter("Togliatti_10_382", "1", 115).
exit("Togliatti_10_382", "1", 150).
enter("Togliatti_10_382", "204a[0]", 150).
exit("Togliatti_10_382", "204a[0]", 270).
enter("Togliatti_10_382", "204b[0]", 270).
exit("Togliatti_10_382", "204b[0]", 275).
enter("Togliatti_10_382", "204[1][0]", 275).
exit("Togliatti_10_382", "204[1][0]", 310).
enter("Togliatti_10_382", "204[1][1]", 310).
exit("Togliatti_10_382", "204[1][1]", 345).
origin("Vittorio_Veneto_2_479", "77[1][1]").
enter("Vittorio_Veneto_2_479", "77[1][1]", 0).
exit("Vittorio_Veneto_2_479", "77[1][1]", 60).
origin("Audinot_3_100", "57[0]").
enter("Audinot_3_100", "57[0]", 0).
exit("Audinot_3_100", "57[0]", 85).
enter("Audinot_3_100", "57[1]", 85).
exit("Audinot_3_100", "57[1]", 100).
enter("Audinot_3_100", "62", 100).
exit("Audinot_3_100", "62", 190).
enter("Audinot_3_100", "159", 190).
exit("Audinot_3_100", "159", 295).
enter("Audinot_3_100", "42", 295).
exit("Audinot_3_100", "42", 315).
enter("Audinot_3_100", "39", 315).
exit("Audinot_3_100", "39", 335).
enter("Audinot_3_100", "35", 335).
exit("Audinot_3_100", "35", 390).
enter("Audinot_3_100", "38", 390).
exit("Audinot_3_100", "38", 450).
enter("Audinot_3_100", "15", 450).
exit("Audinot_3_100", "15", 525).
enter("Audinot_3_100", "14", 525).
exit("Audinot_3_100", "14", 565).
origin("Vittorio_Veneto_2_492", "[17|71]").
enter("Vittorio_Veneto_2_492", "[17|71]", 0).
exit("Vittorio_Veneto_2_492", "[17|71]", 80).
enter("Vittorio_Veneto_2_492", "67", 80).
exit("Vittorio_Veneto_2_492", "67", 110).
enter("Vittorio_Veneto_2_492", "[80|127]", 110).
exit("Vittorio_Veneto_2_492", "[80|127]", 175).
enter("Vittorio_Veneto_2_492", "(77[1][0])", 175).
exit("Vittorio_Veneto_2_492", "(77[1][0])", 195).
enter("Vittorio_Veneto_2_492", "77[1][1]", 195).
exit("Vittorio_Veneto_2_492", "77[1][1]", 255).
origin("Audinot_3_123", "65").
enter("Audinot_3_123", "65", 0).
exit("Audinot_3_123", "65", 45).
enter("Audinot_3_123", "57[0]", 45).
exit("Audinot_3_123", "57[0]", 130).
enter("Audinot_3_123", "57[1]", 130).
exit("Audinot_3_123", "57[1]", 145).
enter("Audinot_3_123", "62", 145).
exit("Audinot_3_123", "62", 235).
enter("Audinot_3_123", "159", 235).
exit("Audinot_3_123", "159", 340).
enter("Audinot_3_123", "42", 340).
exit("Audinot_3_123", "42", 360).
enter("Audinot_3_123", "39", 360).
exit("Audinot_3_123", "39", 380).
enter("Audinot_3_123", "35", 380).
exit("Audinot_3_123", "35", 435).
enter("Audinot_3_123", "38", 435).
exit("Audinot_3_123", "38", 495).
enter("Audinot_3_123", "15", 495).
exit("Audinot_3_123", "15", 570).
enter("Audinot_3_123", "14", 570).
exit("Audinot_3_123", "14", 610).
origin("Vittorio_Veneto_10_257", "122").
enter("Vittorio_Veneto_10_257", "122", 0).
exit("Vittorio_Veneto_10_257", "122", 55).
enter("Vittorio_Veneto_10_257", "1b", 55).
exit("Vittorio_Veneto_10_257", "1b", 115).
enter("Vittorio_Veneto_10_257", "1", 115).
exit("Vittorio_Veneto_10_257", "1", 150).
enter("Vittorio_Veneto_10_257", "204a[0]", 150).
exit("Vittorio_Veneto_10_257", "204a[0]", 270).
enter("Vittorio_Veneto_10_257", "204b[0]", 270).
exit("Vittorio_Veneto_10_257", "204b[0]", 275).
enter("Vittorio_Veneto_10_257", "204[1][0]", 275).
exit("Vittorio_Veneto_10_257", "204[1][0]", 310).
enter("Vittorio_Veneto_10_257", "204[1][1]", 310).
exit("Vittorio_Veneto_10_257", "204[1][1]", 345).
origin("Vittorio_Veneto_1_514", "224[1]").
enter("Vittorio_Veneto_1_514", "224[1]", 0).
exit("Vittorio_Veneto_1_514", "224[1]", 60).
enter("Vittorio_Veneto_1_514", "[181|18]", 60).
exit("Vittorio_Veneto_1_514", "[181|18]", 135).
enter("Vittorio_Veneto_1_514", "[17|71]", 135).
exit("Vittorio_Veneto_1_514", "[17|71]", 215).
enter("Vittorio_Veneto_1_514", "86", 215).
exit("Vittorio_Veneto_1_514", "86", 245).
origin("Vittorio_Veneto_32_482", "[17|71]").
enter("Vittorio_Veneto_32_482", "[17|71]", 0).
exit("Vittorio_Veneto_32_482", "[17|71]", 80).
enter("Vittorio_Veneto_32_482", "67", 80).
exit("Vittorio_Veneto_32_482", "67", 95).
enter("Vittorio_Veneto_32_482", "[80|127]", 95).
exit("Vittorio_Veneto_32_482", "[80|127]", 160).
enter("Vittorio_Veneto_32_482", "(77[1][0]|77ab|77bc)", 160).
exit("Vittorio_Veneto_32_482", "(77[1][0]|77ab|77bc)", 180).
enter("Vittorio_Veneto_32_482", "21a", 180).
exit("Vittorio_Veneto_32_482", "21a", 190).
enter("Vittorio_Veneto_32_482", "21b", 190).
exit("Vittorio_Veneto_32_482", "21b", 210).
enter("Vittorio_Veneto_32_482", "103", 210).
exit("Vittorio_Veneto_32_482", "103", 260).
enter("Vittorio_Veneto_32_482", "14", 260).
exit("Vittorio_Veneto_32_482", "14", 300).
origin("XXI_Aprile_93_172", "122").
enter("XXI_Aprile_93_172", "122", 0).
exit("XXI_Aprile_93_172", "122", 30).
enter("XXI_Aprile_93_172", "1b", 30).
exit("XXI_Aprile_93_172", "1b", 90).
enter("XXI_Aprile_93_172", "1", 90).
exit("XXI_Aprile_93_172", "1", 125).
enter("XXI_Aprile_93_172", "204a[0]", 125).
exit("XXI_Aprile_93_172", "204a[0]", 245).
enter("XXI_Aprile_93_172", "204b[0]", 245).
exit("XXI_Aprile_93_172", "204b[0]", 250).
enter("XXI_Aprile_93_172", "54", 250).
exit("XXI_Aprile_93_172", "54", 275).
origin("Pepoli_2_1721", "[22|59]").
enter("Pepoli_2_1721", "[22|59]", 0).
exit("Pepoli_2_1721", "[22|59]", 70).
enter("Pepoli_2_1721", "(53cd|53[0]|53[1][0]|53[1][1][0]|77[1][0])", 70).
exit("Pepoli_2_1721", "(53cd|53[0]|53[1][0]|53[1][1][0]|77[1][0])", 80).
enter("Pepoli_2_1721", "77[1][1]", 80).
exit("Pepoli_2_1721", "77[1][1]", 140).
origin("Vittorio_Veneto_1_579", "224[0]").
enter("Vittorio_Veneto_1_579", "224[0]", 0).
exit("Vittorio_Veneto_1_579", "224[0]", 140).
enter("Vittorio_Veneto_1_579", "224[1]", 140).
exit("Vittorio_Veneto_1_579", "224[1]", 200).
enter("Vittorio_Veneto_1_579", "[181|18]", 200).
exit("Vittorio_Veneto_1_579", "[181|18]", 275).
enter("Vittorio_Veneto_1_579", "[17|71]", 275).
exit("Vittorio_Veneto_1_579", "[17|71]", 330).
enter("Vittorio_Veneto_1_579", "86", 330).
exit("Vittorio_Veneto_1_579", "86", 360).
origin("Costa_11_1214", "194").
enter("Costa_11_1214", "194", 0).
exit("Costa_11_1214", "194", 15).
enter("Costa_11_1214", "91", 15).
exit("Costa_11_1214", "91", 30).
enter("Costa_11_1214", "186", 30).
exit("Costa_11_1214", "186", 65).
enter("Costa_11_1214", "[109[0]|109[1][0]+20003|109[1][1]]", 65).
exit("Costa_11_1214", "[109[0]|109[1][0]+20003|109[1][1]]", 105).
enter("Costa_11_1214", "[116|46]", 105).
exit("Costa_11_1214", "[116|46]", 175).
enter("Costa_11_1214", "201", 175).
exit("Costa_11_1214", "201", 845).
enter("Costa_11_1214", "201c", 845).
exit("Costa_11_1214", "201c", 890).
enter("Costa_11_1214", "204a[0]", 890).
exit("Costa_11_1214", "204a[0]", 970).
enter("Costa_11_1214", "124", 970).
exit("Costa_11_1214", "124", 1730).
origin("Pepoli_1_1761", "50").
enter("Pepoli_1_1761", "50", 0).
exit("Pepoli_1_1761", "50", 60).
enter("Pepoli_1_1761", "19", 60).
exit("Pepoli_1_1761", "19", 95).
enter("Pepoli_1_1761", "[22|59]", 95).
exit("Pepoli_1_1761", "[22|59]", 165).
enter("Pepoli_1_1761", "(53cd|53[0]|53[1][0])", 165).
exit("Pepoli_1_1761", "(53cd|53[0]|53[1][0])", 185).
enter("Pepoli_1_1761", "79", 185).
exit("Pepoli_1_1761", "79", 255).
enter("Pepoli_1_1761", "[68|11]", 255).
exit("Pepoli_1_1761", "[68|11]", 310).
enter("Pepoli_1_1761", "86", 310).
exit("Pepoli_1_1761", "86", 350).
origin("Costa_200_1240", "204a[0]").
enter("Costa_200_1240", "204a[0]", 0).
exit("Costa_200_1240", "204a[0]", 120).
enter("Costa_200_1240", "204b[0]", 120).
exit("Costa_200_1240", "204b[0]", 125).
enter("Costa_200_1240", "204[1][0]", 125).
exit("Costa_200_1240", "204[1][0]", 160).
enter("Costa_200_1240", "204[1][1]", 160).
exit("Costa_200_1240", "204[1][1]", 195).
origin("Togliatti_9_650", "161").
enter("Togliatti_9_650", "161", 0).
exit("Togliatti_9_650", "161", 25).
enter("Togliatti_9_650", "122", 25).
exit("Togliatti_9_650", "122", 55).
enter("Togliatti_9_650", "1b", 55).
exit("Togliatti_9_650", "1b", 410).
enter("Togliatti_9_650", "1", 410).
exit("Togliatti_9_650", "1", 720).
enter("Togliatti_9_650", "204a[0]", 720).
exit("Togliatti_9_650", "204a[0]", 1315).
enter("Togliatti_9_650", "204b[0]", 1315).
exit("Togliatti_9_650", "204b[0]", 1320).
enter("Togliatti_9_650", "54", 1320).
exit("Togliatti_9_650", "54", 1770).
origin("Vittorio_Veneto_2_552", "224[0]").
enter("Vittorio_Veneto_2_552", "224[0]", 0).
exit("Vittorio_Veneto_2_552", "224[0]", 75).
enter("Vittorio_Veneto_2_552", "224[1]", 75).
exit("Vittorio_Veneto_2_552", "224[1]", 135).
enter("Vittorio_Veneto_2_552", "[181|18]", 135).
exit("Vittorio_Veneto_2_552", "[181|18]", 185).
enter("Vittorio_Veneto_2_552", "[17|71]", 185).
exit("Vittorio_Veneto_2_552", "[17|71]", 235).
enter("Vittorio_Veneto_2_552", "67", 235).
exit("Vittorio_Veneto_2_552", "67", 245).
enter("Vittorio_Veneto_2_552", "[80|127]", 245).
exit("Vittorio_Veneto_2_552", "[80|127]", 295).
enter("Vittorio_Veneto_2_552", "(77[1][0])", 295).
exit("Vittorio_Veneto_2_552", "(77[1][0])", 345).
enter("Vittorio_Veneto_2_552", "77[1][1]", 345).
exit("Vittorio_Veneto_2_552", "77[1][1]", 1025).
origin("Vittorio_Veneto_10_398", "161").
enter("Vittorio_Veneto_10_398", "161", 0).
exit("Vittorio_Veneto_10_398", "161", 50).
enter("Vittorio_Veneto_10_398", "122", 50).
exit("Vittorio_Veneto_10_398", "122", 150).
enter("Vittorio_Veneto_10_398", "1b", 150).
exit("Vittorio_Veneto_10_398", "1b", 210).
enter("Vittorio_Veneto_10_398", "1", 210).
exit("Vittorio_Veneto_10_398", "1", 245).
enter("Vittorio_Veneto_10_398", "204a[0]", 245).
exit("Vittorio_Veneto_10_398", "204a[0]", 365).
enter("Vittorio_Veneto_10_398", "204b[0]", 365).
exit("Vittorio_Veneto_10_398", "204b[0]", 370).
enter("Vittorio_Veneto_10_398", "204[1][0]", 370).
exit("Vittorio_Veneto_10_398", "204[1][0]", 405).
enter("Vittorio_Veneto_10_398", "204[1][1]", 405).
exit("Vittorio_Veneto_10_398", "204[1][1]", 440).
origin("Audinot_12_142", "131").
enter("Audinot_12_142", "131", 0).
exit("Audinot_12_142", "131", 30).
enter("Audinot_12_142", "65", 30).
exit("Audinot_12_142", "65", 90).
enter("Audinot_12_142", "57[0]", 90).
exit("Audinot_12_142", "57[0]", 125).
enter("Audinot_12_142", "57[1]", 125).
exit("Audinot_12_142", "57[1]", 180).
enter("Audinot_12_142", "62", 180).
exit("Audinot_12_142", "62", 210).
enter("Audinot_12_142", "159", 210).
exit("Audinot_12_142", "159", 270).
enter("Audinot_12_142", "42", 270).
exit("Audinot_12_142", "42", 295).
enter("Audinot_12_142", "39", 295).
exit("Audinot_12_142", "39", 305).
enter("Audinot_12_142", "35", 305).
exit("Audinot_12_142", "35", 385).
enter("Audinot_12_142", "38", 385).
exit("Audinot_12_142", "38", 440).
enter("Audinot_12_142", "15", 440).
exit("Audinot_12_142", "15", 505).
enter("Audinot_12_142", "24", 505).
exit("Audinot_12_142", "24", 520).
enter("Audinot_12_142", "[22|59]", 520).
exit("Audinot_12_142", "[22|59]", 535).
enter("Audinot_12_142", "(53cd|53[0]|53[1][0])", 535).
exit("Audinot_12_142", "(53cd|53[0]|53[1][0])", 610).
enter("Audinot_12_142", "79", 610).
exit("Audinot_12_142", "79", 650).
enter("Audinot_12_142", "[68|11]", 650).
exit("Audinot_12_142", "[68|11]", 700).
enter("Audinot_12_142", "84", 700).
exit("Audinot_12_142", "84", 715).
enter("Audinot_12_142", "180", 715).
exit("Audinot_12_142", "180", 750).
origin("Togliatti_10_475", "69").
enter("Togliatti_10_475", "69", 0).
exit("Togliatti_10_475", "69", 95).
enter("Togliatti_10_475", "161", 95).
exit("Togliatti_10_475", "161", 145).
enter("Togliatti_10_475", "122", 145).
exit("Togliatti_10_475", "122", 200).
enter("Togliatti_10_475", "1b", 200).
exit("Togliatti_10_475", "1b", 260).
enter("Togliatti_10_475", "1", 260).
exit("Togliatti_10_475", "1", 295).
enter("Togliatti_10_475", "204a[0]", 295).
exit("Togliatti_10_475", "204a[0]", 415).
enter("Togliatti_10_475", "204b[0]", 415).
exit("Togliatti_10_475", "204b[0]", 420).
enter("Togliatti_10_475", "204[1][0]", 420).
exit("Togliatti_10_475", "204[1][0]", 455).
enter("Togliatti_10_475", "204[1][1]", 455).
exit("Togliatti_10_475", "204[1][1]", 490).
origin("Audinot_10_135", "131").
enter("Audinot_10_135", "131", 0).
exit("Audinot_10_135", "131", 150).
enter("Audinot_10_135", "119", 150).
exit("Audinot_10_135", "119", 170).
enter("Audinot_10_135", "[116|46]", 170).
exit("Audinot_10_135", "[116|46]", 235).
enter("Audinot_10_135", "201", 235).
exit("Audinot_10_135", "201", 285).
enter("Audinot_10_135", "201c", 285).
exit("Audinot_10_135", "201c", 320).
enter("Audinot_10_135", "204a[0]", 320).
exit("Audinot_10_135", "204a[0]", 440).
enter("Audinot_10_135", "204b[0]", 440).
exit("Audinot_10_135", "204b[0]", 445).
enter("Audinot_10_135", "204[1][0]", 445).
exit("Audinot_10_135", "204[1][0]", 480).
enter("Audinot_10_135", "204[1][1]", 480).
exit("Audinot_10_135", "204[1][1]", 515).
origin("Togliatti_10_374", "122").
enter("Togliatti_10_374", "122", 0).
exit("Togliatti_10_374", "122", 55).
enter("Togliatti_10_374", "1b", 55).
exit("Togliatti_10_374", "1b", 115).
enter("Togliatti_10_374", "1", 115).
exit("Togliatti_10_374", "1", 150).
enter("Togliatti_10_374", "204a[0]", 150).
exit("Togliatti_10_374", "204a[0]", 270).
enter("Togliatti_10_374", "204b[0]", 270).
exit("Togliatti_10_374", "204b[0]", 275).
enter("Togliatti_10_374", "204[1][0]", 275).
exit("Togliatti_10_374", "204[1][0]", 310).
enter("Togliatti_10_374", "204[1][1]", 310).
exit("Togliatti_10_374", "204[1][1]", 345).
origin("Vittorio_Veneto_2_513", "224[1]").
enter("Vittorio_Veneto_2_513", "224[1]", 0).
exit("Vittorio_Veneto_2_513", "224[1]", 60).
enter("Vittorio_Veneto_2_513", "[181|18]", 60).
exit("Vittorio_Veneto_2_513", "[181|18]", 135).
enter("Vittorio_Veneto_2_513", "[17|71]", 135).
exit("Vittorio_Veneto_2_513", "[17|71]", 215).
enter("Vittorio_Veneto_2_513", "67", 215).
exit("Vittorio_Veneto_2_513", "67", 230).
enter("Vittorio_Veneto_2_513", "[80|127]", 230).
exit("Vittorio_Veneto_2_513", "[80|127]", 295).
enter("Vittorio_Veneto_2_513", "(77[1][0])", 295).
exit("Vittorio_Veneto_2_513", "(77[1][0])", 315).
enter("Vittorio_Veneto_2_513", "77[1][1]", 315).
exit("Vittorio_Veneto_2_513", "77[1][1]", 375).
origin("Pepoli_1_1676", "86").
enter("Pepoli_1_1676", "86", 0).
exit("Pepoli_1_1676", "86", 30).
origin("Audinot_10_97", "119").
enter("Audinot_10_97", "119", 0).
exit("Audinot_10_97", "119", 20).
enter("Audinot_10_97", "[116|46]", 20).
exit("Audinot_10_97", "[116|46]", 115).
enter("Audinot_10_97", "201", 115).
exit("Audinot_10_97", "201", 250).
enter("Audinot_10_97", "201c", 250).
exit("Audinot_10_97", "201c", 285).
enter("Audinot_10_97", "204a[0]", 285).
exit("Audinot_10_97", "204a[0]", 405).
enter("Audinot_10_97", "204b[0]", 405).
exit("Audinot_10_97", "204b[0]", 410).
enter("Audinot_10_97", "204[1][0]", 410).
exit("Audinot_10_97", "204[1][0]", 445).
enter("Audinot_10_97", "204[1][1]", 445).
exit("Audinot_10_97", "204[1][1]", 480).
origin("Togliatti_9_357", "122").
enter("Togliatti_9_357", "122", 0).
exit("Togliatti_9_357", "122", 710).
enter("Togliatti_9_357", "1b", 710).
exit("Togliatti_9_357", "1b", 1280).
enter("Togliatti_9_357", "1", 1280).
exit("Togliatti_9_357", "1", 1425).
enter("Togliatti_9_357", "204a[0]", 1425).
exit("Togliatti_9_357", "204a[0]", 1740).
enter("Togliatti_9_357", "204b[0]", 1740).
exit("Togliatti_9_357", "204b[0]", 1765).
enter("Togliatti_9_357", "54", 1765).
exit("Togliatti_9_357", "54", 2755).
origin("XXI_Aprile_9_595", "122").
enter("XXI_Aprile_9_595", "122", 0).
exit("XXI_Aprile_9_595", "122", 100).
enter("XXI_Aprile_9_595", "1b", 100).
exit("XXI_Aprile_9_595", "1b", 160).
enter("XXI_Aprile_9_595", "1", 160).
exit("XXI_Aprile_9_595", "1", 195).
enter("XXI_Aprile_9_595", "204a[0]", 195).
exit("XXI_Aprile_9_595", "204a[0]", 315).
enter("XXI_Aprile_9_595", "204b[0]", 315).
exit("XXI_Aprile_9_595", "204b[0]", 320).
enter("XXI_Aprile_9_595", "54", 320).
exit("XXI_Aprile_9_595", "54", 345).
origin("Vittorio_Veneto_10_499", "[181|18]").
enter("Vittorio_Veneto_10_499", "[181|18]", 0).
exit("Vittorio_Veneto_10_499", "[181|18]", 75).
enter("Vittorio_Veneto_10_499", "69", 75).
exit("Vittorio_Veneto_10_499", "69", 170).
enter("Vittorio_Veneto_10_499", "161", 170).
exit("Vittorio_Veneto_10_499", "161", 195).
enter("Vittorio_Veneto_10_499", "122", 195).
exit("Vittorio_Veneto_10_499", "122", 295).
enter("Vittorio_Veneto_10_499", "1b", 295).
exit("Vittorio_Veneto_10_499", "1b", 355).
enter("Vittorio_Veneto_10_499", "1", 355).
exit("Vittorio_Veneto_10_499", "1", 390).
enter("Vittorio_Veneto_10_499", "204a[0]", 390).
exit("Vittorio_Veneto_10_499", "204a[0]", 510).
enter("Vittorio_Veneto_10_499", "204b[0]", 510).
exit("Vittorio_Veneto_10_499", "204b[0]", 515).
enter("Vittorio_Veneto_10_499", "204[1][0]", 515).
exit("Vittorio_Veneto_10_499", "204[1][0]", 550).
enter("Vittorio_Veneto_10_499", "204[1][1]", 550).
exit("Vittorio_Veneto_10_499", "204[1][1]", 585).
origin("Pepoli_12_1903", "159").
enter("Pepoli_12_1903", "159", 0).
exit("Pepoli_12_1903", "159", 65).
enter("Pepoli_12_1903", "42", 65).
exit("Pepoli_12_1903", "42", 80).
enter("Pepoli_12_1903", "39", 80).
exit("Pepoli_12_1903", "39", 105).
enter("Pepoli_12_1903", "35", 105).
exit("Pepoli_12_1903", "35", 155).
enter("Pepoli_12_1903", "38", 155).
exit("Pepoli_12_1903", "38", 170).
enter("Pepoli_12_1903", "50", 170).
exit("Pepoli_12_1903", "50", 260).
enter("Pepoli_12_1903", "19", 260).
exit("Pepoli_12_1903", "19", 285).
enter("Pepoli_12_1903", "[22|59]", 285).
exit("Pepoli_12_1903", "[22|59]", 385).
enter("Pepoli_12_1903", "(53cd|53[0]|53[1][0])", 385).
exit("Pepoli_12_1903", "(53cd|53[0]|53[1][0])", 430).
enter("Pepoli_12_1903", "79", 430).
exit("Pepoli_12_1903", "79", 465).
enter("Pepoli_12_1903", "[68|11]", 465).
exit("Pepoli_12_1903", "[68|11]", 535).
enter("Pepoli_12_1903", "84", 535).
exit("Pepoli_12_1903", "84", 550).
enter("Pepoli_12_1903", "180", 550).
exit("Pepoli_12_1903", "180", 655).
origin("Pepoli_3_2077", "57[1]").
enter("Pepoli_3_2077", "57[1]", 0).
exit("Pepoli_3_2077", "57[1]", 30).
enter("Pepoli_3_2077", "62", 30).
exit("Pepoli_3_2077", "62", 125).
enter("Pepoli_3_2077", "159", 125).
exit("Pepoli_3_2077", "159", 210).
enter("Pepoli_3_2077", "42", 210).
exit("Pepoli_3_2077", "42", 225).
enter("Pepoli_3_2077", "39", 225).
exit("Pepoli_3_2077", "39", 270).
enter("Pepoli_3_2077", "35", 270).
exit("Pepoli_3_2077", "35", 325).
enter("Pepoli_3_2077", "38", 325).
exit("Pepoli_3_2077", "38", 340).
enter("Pepoli_3_2077", "33", 340).
exit("Pepoli_3_2077", "33", 355).
enter("Pepoli_3_2077", "10", 355).
exit("Pepoli_3_2077", "10", 1350).
origin("Togliatti_9_377", "161").
enter("Togliatti_9_377", "161", 0).
exit("Togliatti_9_377", "161", 25).
enter("Togliatti_9_377", "122", 25).
exit("Togliatti_9_377", "122", 80).
enter("Togliatti_9_377", "1b", 80).
exit("Togliatti_9_377", "1b", 140).
enter("Togliatti_9_377", "1", 140).
exit("Togliatti_9_377", "1", 175).
enter("Togliatti_9_377", "204a[0]", 175).
exit("Togliatti_9_377", "204a[0]", 295).
enter("Togliatti_9_377", "204b[0]", 295).
exit("Togliatti_9_377", "204b[0]", 300).
enter("Togliatti_9_377", "54", 300).
exit("Togliatti_9_377", "54", 325).
origin("Vittorio_Veneto_10_536", "224[0]").
enter("Vittorio_Veneto_10_536", "224[0]", 0).
exit("Vittorio_Veneto_10_536", "224[0]", 140).
enter("Vittorio_Veneto_10_536", "224[1]", 140).
exit("Vittorio_Veneto_10_536", "224[1]", 200).
enter("Vittorio_Veneto_10_536", "[181|18]", 200).
exit("Vittorio_Veneto_10_536", "[181|18]", 275).
enter("Vittorio_Veneto_10_536", "69", 275).
exit("Vittorio_Veneto_10_536", "69", 370).
enter("Vittorio_Veneto_10_536", "161", 370).
exit("Vittorio_Veneto_10_536", "161", 395).
enter("Vittorio_Veneto_10_536", "122", 395).
exit("Vittorio_Veneto_10_536", "122", 495).
enter("Vittorio_Veneto_10_536", "1b", 495).
exit("Vittorio_Veneto_10_536", "1b", 555).
enter("Vittorio_Veneto_10_536", "1", 555).
exit("Vittorio_Veneto_10_536", "1", 590).
enter("Vittorio_Veneto_10_536", "204a[0]", 590).
exit("Vittorio_Veneto_10_536", "204a[0]", 710).
enter("Vittorio_Veneto_10_536", "204b[0]", 710).
exit("Vittorio_Veneto_10_536", "204b[0]", 715).
enter("Vittorio_Veneto_10_536", "204[1][0]", 715).
exit("Vittorio_Veneto_10_536", "204[1][0]", 750).
enter("Vittorio_Veneto_10_536", "204[1][1]", 750).
exit("Vittorio_Veneto_10_536", "204[1][1]", 785).
origin("Togliatti_10_547", "194").
enter("Togliatti_10_547", "194", 0).
exit("Togliatti_10_547", "194", 25).
enter("Togliatti_10_547", "91", 25).
exit("Togliatti_10_547", "91", 105).
enter("Togliatti_10_547", "173", 105).
exit("Togliatti_10_547", "173", 130).
enter("Togliatti_10_547", "58[0]", 130).
exit("Togliatti_10_547", "58[0]", 165).
enter("Togliatti_10_547", "58[1]", 165).
exit("Togliatti_10_547", "58[1]", 190).
enter("Togliatti_10_547", "197", 190).
exit("Togliatti_10_547", "197", 260).
enter("Togliatti_10_547", "[109[0]|109[1][0]+20003|109[1][1]]", 260).
exit("Togliatti_10_547", "[109[0]|109[1][0]+20003|109[1][1]]", 280).
enter("Togliatti_10_547", "[116|46]", 280).
exit("Togliatti_10_547", "[116|46]", 355).
enter("Togliatti_10_547", "201", 355).
exit("Togliatti_10_547", "201", 720).
enter("Togliatti_10_547", "201c", 720).
exit("Togliatti_10_547", "201c", 880).
enter("Togliatti_10_547", "204a[0]", 880).
exit("Togliatti_10_547", "204a[0]", 1775).
enter("Togliatti_10_547", "204b[0]", 1775).
exit("Togliatti_10_547", "204b[0]", 1850).
enter("Togliatti_10_547", "204[1][0]", 1850).
exit("Togliatti_10_547", "204[1][0]", 1885).
enter("Togliatti_10_547", "204[1][1]", 1885).
exit("Togliatti_10_547", "204[1][1]", 1920).
origin("Pepoli_3_1731", "15").
enter("Pepoli_3_1731", "15", 0).
exit("Pepoli_3_1731", "15", 75).
enter("Pepoli_3_1731", "14", 75).
exit("Pepoli_3_1731", "14", 115).
origin("Togliatti_10_510", "72[0]").
enter("Togliatti_10_510", "72[0]", 0).
exit("Togliatti_10_510", "72[0]", 75).
enter("Togliatti_10_510", "72[1]", 75).
exit("Togliatti_10_510", "72[1]", 115).
enter("Togliatti_10_510", "69", 115).
exit("Togliatti_10_510", "69", 210).
enter("Togliatti_10_510", "161", 210).
exit("Togliatti_10_510", "161", 260).
enter("Togliatti_10_510", "122", 260).
exit("Togliatti_10_510", "122", 360).
enter("Togliatti_10_510", "1b", 360).
exit("Togliatti_10_510", "1b", 420).
enter("Togliatti_10_510", "1", 420).
exit("Togliatti_10_510", "1", 455).
enter("Togliatti_10_510", "204a[0]", 455).
exit("Togliatti_10_510", "204a[0]", 575).
enter("Togliatti_10_510", "204b[0]", 575).
exit("Togliatti_10_510", "204b[0]", 580).
enter("Togliatti_10_510", "204[1][0]", 580).
exit("Togliatti_10_510", "204[1][0]", 615).
enter("Togliatti_10_510", "204[1][1]", 615).
exit("Togliatti_10_510", "204[1][1]", 650).
origin("Pepoli_3_2092", "57[0]").
enter("Pepoli_3_2092", "57[0]", 0).
exit("Pepoli_3_2092", "57[0]", 190).
enter("Pepoli_3_2092", "57[1]", 190).
exit("Pepoli_3_2092", "57[1]", 230).
enter("Pepoli_3_2092", "62", 230).
exit("Pepoli_3_2092", "62", 320).
enter("Pepoli_3_2092", "159", 320).
exit("Pepoli_3_2092", "159", 385).
enter("Pepoli_3_2092", "42", 385).
exit("Pepoli_3_2092", "42", 400).
enter("Pepoli_3_2092", "39", 400).
exit("Pepoli_3_2092", "39", 455).
enter("Pepoli_3_2092", "35", 455).
exit("Pepoli_3_2092", "35", 510).
enter("Pepoli_3_2092", "38", 510).
exit("Pepoli_3_2092", "38", 525).
enter("Pepoli_3_2092", "33", 525).
exit("Pepoli_3_2092", "33", 540).
enter("Pepoli_3_2092", "10", 540).
exit("Pepoli_3_2092", "10", 565).
origin("Togliatti_10_649", "[116|46]").
enter("Togliatti_10_649", "[116|46]", 0).
exit("Togliatti_10_649", "[116|46]", 55).
enter("Togliatti_10_649", "201", 55).
exit("Togliatti_10_649", "201", 115).
enter("Togliatti_10_649", "201c", 115).
exit("Togliatti_10_649", "201c", 265).
enter("Togliatti_10_649", "204a[0]", 265).
exit("Togliatti_10_649", "204a[0]", 1310).
enter("Togliatti_10_649", "204b[0]", 1310).
exit("Togliatti_10_649", "204b[0]", 1365).
enter("Togliatti_10_649", "204[1][0]", 1365).
exit("Togliatti_10_649", "204[1][0]", 1400).
enter("Togliatti_10_649", "204[1][1]", 1400).
exit("Togliatti_10_649", "204[1][1]", 1720).
origin("Togliatti_9_437", "161").
enter("Togliatti_9_437", "161", 0).
exit("Togliatti_9_437", "161", 25).
enter("Togliatti_9_437", "122", 25).
exit("Togliatti_9_437", "122", 80).
enter("Togliatti_9_437", "1b", 80).
exit("Togliatti_9_437", "1b", 140).
enter("Togliatti_9_437", "1", 140).
exit("Togliatti_9_437", "1", 175).
enter("Togliatti_9_437", "204a[0]", 175).
exit("Togliatti_9_437", "204a[0]", 295).
enter("Togliatti_9_437", "204b[0]", 295).
exit("Togliatti_9_437", "204b[0]", 300).
enter("Togliatti_9_437", "54", 300).
exit("Togliatti_9_437", "54", 325).
origin("Costa_50_1314", "120").
enter("Costa_50_1314", "120", 0).
exit("Costa_50_1314", "120", 75).
enter("Costa_50_1314", "65", 75).
exit("Costa_50_1314", "65", 120).
enter("Costa_50_1314", "[200|60]", 120).
exit("Costa_50_1314", "[200|60]", 255).
origin("Togliatti_10_592", "85").
enter("Togliatti_10_592", "85", 0).
exit("Togliatti_10_592", "85", 60).
enter("Togliatti_10_592", "72[0]", 60).
exit("Togliatti_10_592", "72[0]", 135).
enter("Togliatti_10_592", "72[1]", 135).
exit("Togliatti_10_592", "72[1]", 175).
enter("Togliatti_10_592", "69", 175).
exit("Togliatti_10_592", "69", 270).
enter("Togliatti_10_592", "161", 270).
exit("Togliatti_10_592", "161", 295).
enter("Togliatti_10_592", "122", 295).
exit("Togliatti_10_592", "122", 395).
enter("Togliatti_10_592", "1b", 395).
exit("Togliatti_10_592", "1b", 455).
enter("Togliatti_10_592", "1", 455).
exit("Togliatti_10_592", "1", 490).
enter("Togliatti_10_592", "204a[0]", 490).
exit("Togliatti_10_592", "204a[0]", 610).
enter("Togliatti_10_592", "204b[0]", 610).
exit("Togliatti_10_592", "204b[0]", 615).
enter("Togliatti_10_592", "204[1][0]", 615).
exit("Togliatti_10_592", "204[1][0]", 650).
enter("Togliatti_10_592", "204[1][1]", 650).
exit("Togliatti_10_592", "204[1][1]", 685).
origin("Turati_10_23", "1b").
enter("Turati_10_23", "1b", 0).
exit("Turati_10_23", "1b", 1445).
enter("Turati_10_23", "1", 1445).
exit("Turati_10_23", "1", 1485).
enter("Turati_10_23", "204a[0]", 1485).
exit("Turati_10_23", "204a[0]", 1605).
enter("Turati_10_23", "204b[0]", 1605).
exit("Turati_10_23", "204b[0]", 1610).
enter("Turati_10_23", "204[1][0]", 1610).
exit("Turati_10_23", "204[1][0]", 1645).
enter("Turati_10_23", "204[1][1]", 1645).
exit("Turati_10_23", "204[1][1]", 2015).
origin("Vittorio_Veneto_1_566", "224[0]").
enter("Vittorio_Veneto_1_566", "224[0]", 0).
exit("Vittorio_Veneto_1_566", "224[0]", 140).
enter("Vittorio_Veneto_1_566", "224[1]", 140).
exit("Vittorio_Veneto_1_566", "224[1]", 200).
enter("Vittorio_Veneto_1_566", "[181|18]", 200).
exit("Vittorio_Veneto_1_566", "[181|18]", 275).
enter("Vittorio_Veneto_1_566", "[17|71]", 275).
exit("Vittorio_Veneto_1_566", "[17|71]", 330).
enter("Vittorio_Veneto_1_566", "86", 330).
exit("Vittorio_Veneto_1_566", "86", 360).
origin("XXI_Aprile_94_898", "204a[0]").
enter("XXI_Aprile_94_898", "204a[0]", 0).
exit("XXI_Aprile_94_898", "204a[0]", 120).
enter("XXI_Aprile_94_898", "204b[0]", 120).
exit("XXI_Aprile_94_898", "204b[0]", 125).
enter("XXI_Aprile_94_898", "54", 125).
exit("XXI_Aprile_94_898", "54", 150).
origin("Pepoli_2_1713", "[22|59]").
enter("Pepoli_2_1713", "[22|59]", 0).
exit("Pepoli_2_1713", "[22|59]", 70).
enter("Pepoli_2_1713", "(53cd|53[0]|53[1][0]|53[1][1][0]|77[1][0])", 70).
exit("Pepoli_2_1713", "(53cd|53[0]|53[1][0]|53[1][1][0]|77[1][0])", 80).
enter("Pepoli_2_1713", "77[1][1]", 80).
exit("Pepoli_2_1713", "77[1][1]", 140).
origin("Costa_200_1167", "204b[0]").
enter("Costa_200_1167", "204b[0]", 0).
exit("Costa_200_1167", "204b[0]", 1170).
enter("Costa_200_1167", "204[1][0]", 1170).
exit("Costa_200_1167", "204[1][0]", 1290).
enter("Costa_200_1167", "204[1][1]", 1290).
exit("Costa_200_1167", "204[1][1]", 1465).
origin("Pepoli_12_1858", "159").
enter("Pepoli_12_1858", "159", 0).
exit("Pepoli_12_1858", "159", 105).
enter("Pepoli_12_1858", "42", 105).
exit("Pepoli_12_1858", "42", 125).
enter("Pepoli_12_1858", "39", 125).
exit("Pepoli_12_1858", "39", 145).
enter("Pepoli_12_1858", "35", 145).
exit("Pepoli_12_1858", "35", 200).
enter("Pepoli_12_1858", "38", 200).
exit("Pepoli_12_1858", "38", 260).
enter("Pepoli_12_1858", "50", 260).
exit("Pepoli_12_1858", "50", 320).
enter("Pepoli_12_1858", "19", 320).
exit("Pepoli_12_1858", "19", 355).
enter("Pepoli_12_1858", "[22|59]", 355).
exit("Pepoli_12_1858", "[22|59]", 425).
enter("Pepoli_12_1858", "(53cd|53[0]|53[1][0])", 425).
exit("Pepoli_12_1858", "(53cd|53[0]|53[1][0])", 445).
enter("Pepoli_12_1858", "79", 445).
exit("Pepoli_12_1858", "79", 515).
enter("Pepoli_12_1858", "[68|11]", 515).
exit("Pepoli_12_1858", "[68|11]", 570).
enter("Pepoli_12_1858", "84", 570).
exit("Pepoli_12_1858", "84", 590).
enter("Pepoli_12_1858", "180", 590).
exit("Pepoli_12_1858", "180", 685).
origin("Togliatti_10_578", "85").
enter("Togliatti_10_578", "85", 0).
exit("Togliatti_10_578", "85", 60).
enter("Togliatti_10_578", "72[0]", 60).
exit("Togliatti_10_578", "72[0]", 410).
enter("Togliatti_10_578", "72[1]", 410).
exit("Togliatti_10_578", "72[1]", 670).
enter("Togliatti_10_578", "69", 670).
exit("Togliatti_10_578", "69", 785).
enter("Togliatti_10_578", "161", 785).
exit("Togliatti_10_578", "161", 820).
enter("Togliatti_10_578", "122", 820).
exit("Togliatti_10_578", "122", 1240).
enter("Togliatti_10_578", "1b", 1240).
exit("Togliatti_10_578", "1b", 1445).
enter("Togliatti_10_578", "1", 1445).
exit("Togliatti_10_578", "1", 1840).
enter("Togliatti_10_578", "204a[0]", 1840).
exit("Togliatti_10_578", "204a[0]", 1900).
enter("Togliatti_10_578", "204b[0]", 1900).
exit("Togliatti_10_578", "204b[0]", 1910).
enter("Togliatti_10_578", "204[1][0]", 1910).
exit("Togliatti_10_578", "204[1][0]", 1985).
enter("Togliatti_10_578", "204[1][1]", 1985).
exit("Togliatti_10_578", "204[1][1]", 2625).
origin("Togliatti_10_436", "161").
enter("Togliatti_10_436", "161", 0).
exit("Togliatti_10_436", "161", 25).
enter("Togliatti_10_436", "122", 25).
exit("Togliatti_10_436", "122", 80).
enter("Togliatti_10_436", "1b", 80).
exit("Togliatti_10_436", "1b", 140).
enter("Togliatti_10_436", "1", 140).
exit("Togliatti_10_436", "1", 175).
enter("Togliatti_10_436", "204a[0]", 175).
exit("Togliatti_10_436", "204a[0]", 295).
enter("Togliatti_10_436", "204b[0]", 295).
exit("Togliatti_10_436", "204b[0]", 300).
enter("Togliatti_10_436", "204[1][0]", 300).
exit("Togliatti_10_436", "204[1][0]", 335).
enter("Togliatti_10_436", "204[1][1]", 335).
exit("Togliatti_10_436", "204[1][1]", 370).
origin("Togliatti_3_2098", "194").
enter("Togliatti_3_2098", "194", 0).
exit("Togliatti_3_2098", "194", 20).
enter("Togliatti_3_2098", "91", 20).
exit("Togliatti_3_2098", "91", 40).
enter("Togliatti_3_2098", "173", 40).
exit("Togliatti_3_2098", "173", 65).
enter("Togliatti_3_2098", "62", 65).
exit("Togliatti_3_2098", "62", 155).
enter("Togliatti_3_2098", "159", 155).
exit("Togliatti_3_2098", "159", 210).
enter("Togliatti_3_2098", "42", 210).
exit("Togliatti_3_2098", "42", 280).
enter("Togliatti_3_2098", "39", 280).
exit("Togliatti_3_2098", "39", 300).
enter("Togliatti_3_2098", "35", 300).
exit("Togliatti_3_2098", "35", 310).
enter("Togliatti_3_2098", "38", 310).
exit("Togliatti_3_2098", "38", 415).
enter("Togliatti_3_2098", "33", 415).
exit("Togliatti_3_2098", "33", 425).
enter("Togliatti_3_2098", "10", 425).
exit("Togliatti_3_2098", "10", 995).
origin("Togliatti_9_591", "204a[0]").
enter("Togliatti_9_591", "204a[0]", 0).
exit("Togliatti_9_591", "204a[0]", 105).
enter("Togliatti_9_591", "204b[0]", 105).
exit("Togliatti_9_591", "204b[0]", 175).
enter("Togliatti_9_591", "54", 175).
exit("Togliatti_9_591", "54", 405).
origin("Vittorio_Veneto_2_582", "224[0]").
enter("Vittorio_Veneto_2_582", "224[0]", 0).
exit("Vittorio_Veneto_2_582", "224[0]", 140).
enter("Vittorio_Veneto_2_582", "224[1]", 140).
exit("Vittorio_Veneto_2_582", "224[1]", 200).
enter("Vittorio_Veneto_2_582", "[181|18]", 200).
exit("Vittorio_Veneto_2_582", "[181|18]", 275).
enter("Vittorio_Veneto_2_582", "[17|71]", 275).
exit("Vittorio_Veneto_2_582", "[17|71]", 330).
enter("Vittorio_Veneto_2_582", "67", 330).
exit("Vittorio_Veneto_2_582", "67", 340).
enter("Vittorio_Veneto_2_582", "[80|127]", 340).
exit("Vittorio_Veneto_2_582", "[80|127]", 360).
enter("Vittorio_Veneto_2_582", "(77[1][0])", 360).
exit("Vittorio_Veneto_2_582", "(77[1][0])", 380).
enter("Vittorio_Veneto_2_582", "77[1][1]", 380).
exit("Vittorio_Veneto_2_582", "77[1][1]", 420).
origin("Togliatti_10_430", "122").
enter("Togliatti_10_430", "122", 0).
exit("Togliatti_10_430", "122", 55).
enter("Togliatti_10_430", "1b", 55).
exit("Togliatti_10_430", "1b", 115).
enter("Togliatti_10_430", "1", 115).
exit("Togliatti_10_430", "1", 150).
enter("Togliatti_10_430", "204a[0]", 150).
exit("Togliatti_10_430", "204a[0]", 270).
enter("Togliatti_10_430", "204b[0]", 270).
exit("Togliatti_10_430", "204b[0]", 275).
enter("Togliatti_10_430", "204[1][0]", 275).
exit("Togliatti_10_430", "204[1][0]", 310).
enter("Togliatti_10_430", "204[1][1]", 310).
exit("Togliatti_10_430", "204[1][1]", 345).
origin("Togliatti_10_419", "122").
enter("Togliatti_10_419", "122", 0).
exit("Togliatti_10_419", "122", 55).
enter("Togliatti_10_419", "1b", 55).
exit("Togliatti_10_419", "1b", 1600).
enter("Togliatti_10_419", "1", 1600).
exit("Togliatti_10_419", "1", 1720).
enter("Togliatti_10_419", "204a[0]", 1720).
exit("Togliatti_10_419", "204a[0]", 1775).
enter("Togliatti_10_419", "204b[0]", 1775).
exit("Togliatti_10_419", "204b[0]", 1840).
enter("Togliatti_10_419", "204[1][0]", 1840).
exit("Togliatti_10_419", "204[1][0]", 1875).
enter("Togliatti_10_419", "204[1][1]", 1875).
exit("Togliatti_10_419", "204[1][1]", 3040).
origin("Vittorio_Veneto_1_586", "224[0]").
enter("Vittorio_Veneto_1_586", "224[0]", 0).
exit("Vittorio_Veneto_1_586", "224[0]", 140).
enter("Vittorio_Veneto_1_586", "224[1]", 140).
exit("Vittorio_Veneto_1_586", "224[1]", 200).
enter("Vittorio_Veneto_1_586", "[181|18]", 200).
exit("Vittorio_Veneto_1_586", "[181|18]", 275).
enter("Vittorio_Veneto_1_586", "[17|71]", 275).
exit("Vittorio_Veneto_1_586", "[17|71]", 330).
enter("Vittorio_Veneto_1_586", "86", 330).
exit("Vittorio_Veneto_1_586", "86", 360).
origin("Togliatti_9_367", "122").
enter("Togliatti_9_367", "122", 0).
exit("Togliatti_9_367", "122", 520).
enter("Togliatti_9_367", "1b", 520).
exit("Togliatti_9_367", "1b", 1055).
enter("Togliatti_9_367", "1", 1055).
exit("Togliatti_9_367", "1", 1400).
enter("Togliatti_9_367", "204a[0]", 1400).
exit("Togliatti_9_367", "204a[0]", 1530).
enter("Togliatti_9_367", "204b[0]", 1530).
exit("Togliatti_9_367", "204b[0]", 1535).
enter("Togliatti_9_367", "54", 1535).
exit("Togliatti_9_367", "54", 1650).
origin("Togliatti_71_706", "m90").
enter("Togliatti_71_706", "m90", 0).
exit("Togliatti_71_706", "m90", 10).
enter("Togliatti_71_706", "[89[0]|20002+89[1][0]|89[1][1]]", 10).
exit("Togliatti_71_706", "[89[0]|20002+89[1][0]|89[1][1]]", 25).
enter("Togliatti_71_706", "91", 25).
exit("Togliatti_71_706", "91", 30).
enter("Togliatti_71_706", "186", 30).
exit("Togliatti_71_706", "186", 50).
enter("Togliatti_71_706", "[109[0]|109[1][0]+20003|109[1][1]]", 50).
exit("Togliatti_71_706", "[109[0]|109[1][0]+20003|109[1][1]]", 70).
enter("Togliatti_71_706", "[116|46]", 70).
exit("Togliatti_71_706", "[116|46]", 115).
enter("Togliatti_71_706", "113", 115).
exit("Togliatti_71_706", "113", 155).
enter("Togliatti_71_706", "209", 155).
exit("Togliatti_71_706", "209", 735).
origin("Togliatti_10_356", "1b").
enter("Togliatti_10_356", "1b", 0).
exit("Togliatti_10_356", "1b", 695).
enter("Togliatti_10_356", "1", 695).
exit("Togliatti_10_356", "1", 915).
enter("Togliatti_10_356", "204a[0]", 915).
exit("Togliatti_10_356", "204a[0]", 995).
enter("Togliatti_10_356", "204b[0]", 995).
exit("Togliatti_10_356", "204b[0]", 1035).
enter("Togliatti_10_356", "204[1][0]", 1035).
exit("Togliatti_10_356", "204[1][0]", 1075).
enter("Togliatti_10_356", "204[1][1]", 1075).
exit("Togliatti_10_356", "204[1][1]", 1955).
origin("Togliatti_10_597", "161").
enter("Togliatti_10_597", "161", 0).
exit("Togliatti_10_597", "161", 25).
enter("Togliatti_10_597", "122", 25).
exit("Togliatti_10_597", "122", 840).
enter("Togliatti_10_597", "1b", 840).
exit("Togliatti_10_597", "1b", 1695).
enter("Togliatti_10_597", "1", 1695).
exit("Togliatti_10_597", "1", 1785).
enter("Togliatti_10_597", "204a[0]", 1785).
exit("Togliatti_10_597", "204a[0]", 1840).
enter("Togliatti_10_597", "204b[0]", 1840).
exit("Togliatti_10_597", "204b[0]", 1905).
enter("Togliatti_10_597", "204[1][0]", 1905).
exit("Togliatti_10_597", "204[1][0]", 1955).
enter("Togliatti_10_597", "204[1][1]", 1955).
exit("Togliatti_10_597", "204[1][1]", 2310).
origin("Vittorio_Veneto_2_544", "224[0]").
enter("Vittorio_Veneto_2_544", "224[0]", 0).
exit("Vittorio_Veneto_2_544", "224[0]", 140).
enter("Vittorio_Veneto_2_544", "224[1]", 140).
exit("Vittorio_Veneto_2_544", "224[1]", 200).
enter("Vittorio_Veneto_2_544", "[181|18]", 200).
exit("Vittorio_Veneto_2_544", "[181|18]", 275).
enter("Vittorio_Veneto_2_544", "[17|71]", 275).
exit("Vittorio_Veneto_2_544", "[17|71]", 330).
enter("Vittorio_Veneto_2_544", "67", 330).
exit("Vittorio_Veneto_2_544", "67", 360).
enter("Vittorio_Veneto_2_544", "[80|127]", 360).
exit("Vittorio_Veneto_2_544", "[80|127]", 425).
enter("Vittorio_Veneto_2_544", "(77[1][0])", 425).
exit("Vittorio_Veneto_2_544", "(77[1][0])", 445).
enter("Vittorio_Veneto_2_544", "77[1][1]", 445).
exit("Vittorio_Veneto_2_544", "77[1][1]", 485).
origin("Audinot_12_119", "57[0]").
enter("Audinot_12_119", "57[0]", 0).
exit("Audinot_12_119", "57[0]", 85).
enter("Audinot_12_119", "57[1]", 85).
exit("Audinot_12_119", "57[1]", 100).
enter("Audinot_12_119", "62", 100).
exit("Audinot_12_119", "62", 190).
enter("Audinot_12_119", "159", 190).
exit("Audinot_12_119", "159", 295).
enter("Audinot_12_119", "42", 295).
exit("Audinot_12_119", "42", 315).
enter("Audinot_12_119", "39", 315).
exit("Audinot_12_119", "39", 335).
enter("Audinot_12_119", "35", 335).
exit("Audinot_12_119", "35", 390).
enter("Audinot_12_119", "38", 390).
exit("Audinot_12_119", "38", 450).
enter("Audinot_12_119", "50", 450).
exit("Audinot_12_119", "50", 510).
enter("Audinot_12_119", "19", 510).
exit("Audinot_12_119", "19", 545).
enter("Audinot_12_119", "[22|59]", 545).
exit("Audinot_12_119", "[22|59]", 615).
enter("Audinot_12_119", "(53cd|53[0]|53[1][0])", 615).
exit("Audinot_12_119", "(53cd|53[0]|53[1][0])", 635).
enter("Audinot_12_119", "79", 635).
exit("Audinot_12_119", "79", 705).
enter("Audinot_12_119", "[68|11]", 705).
exit("Audinot_12_119", "[68|11]", 760).
enter("Audinot_12_119", "84", 760).
exit("Audinot_12_119", "84", 780).
enter("Audinot_12_119", "180", 780).
exit("Audinot_12_119", "180", 830).
origin("Audinot_12_126", "131").
enter("Audinot_12_126", "131", 0).
exit("Audinot_12_126", "131", 150).
enter("Audinot_12_126", "65", 150).
exit("Audinot_12_126", "65", 195).
enter("Audinot_12_126", "57[0]", 195).
exit("Audinot_12_126", "57[0]", 280).
enter("Audinot_12_126", "57[1]", 280).
exit("Audinot_12_126", "57[1]", 295).
enter("Audinot_12_126", "62", 295).
exit("Audinot_12_126", "62", 385).
enter("Audinot_12_126", "159", 385).
exit("Audinot_12_126", "159", 490).
enter("Audinot_12_126", "42", 490).
exit("Audinot_12_126", "42", 510).
enter("Audinot_12_126", "39", 510).
exit("Audinot_12_126", "39", 530).
enter("Audinot_12_126", "35", 530).
exit("Audinot_12_126", "35", 585).
enter("Audinot_12_126", "38", 585).
exit("Audinot_12_126", "38", 645).
enter("Audinot_12_126", "50", 645).
exit("Audinot_12_126", "50", 705).
enter("Audinot_12_126", "19", 705).
exit("Audinot_12_126", "19", 740).
enter("Audinot_12_126", "[22|59]", 740).
exit("Audinot_12_126", "[22|59]", 810).
enter("Audinot_12_126", "(53cd|53[0]|53[1][0])", 810).
exit("Audinot_12_126", "(53cd|53[0]|53[1][0])", 830).
enter("Audinot_12_126", "79", 830).
exit("Audinot_12_126", "79", 870).
enter("Audinot_12_126", "[68|11]", 870).
exit("Audinot_12_126", "[68|11]", 915).
enter("Audinot_12_126", "84", 915).
exit("Audinot_12_126", "84", 935).
enter("Audinot_12_126", "180", 935).
exit("Audinot_12_126", "180", 960).
origin("Togliatti_10_350", "1b").
enter("Togliatti_10_350", "1b", 0).
exit("Togliatti_10_350", "1b", 435).
enter("Togliatti_10_350", "1", 435).
exit("Togliatti_10_350", "1", 525).
enter("Togliatti_10_350", "204a[0]", 525).
exit("Togliatti_10_350", "204a[0]", 975).
enter("Togliatti_10_350", "204b[0]", 975).
exit("Togliatti_10_350", "204b[0]", 995).
enter("Togliatti_10_350", "204[1][0]", 995).
exit("Togliatti_10_350", "204[1][0]", 1035).
enter("Togliatti_10_350", "204[1][1]", 1035).
exit("Togliatti_10_350", "204[1][1]", 2010).
origin("Costa_200_1118", "204a[0]").
enter("Costa_200_1118", "204a[0]", 0).
exit("Costa_200_1118", "204a[0]", 120).
enter("Costa_200_1118", "204b[0]", 120).
exit("Costa_200_1118", "204b[0]", 125).
enter("Costa_200_1118", "204[1][0]", 125).
exit("Costa_200_1118", "204[1][0]", 160).
enter("Costa_200_1118", "204[1][1]", 160).
exit("Costa_200_1118", "204[1][1]", 195).
origin("Costa_700_1317", "[116|46]").
enter("Costa_700_1317", "[116|46]", 0).
exit("Costa_700_1317", "[116|46]", 65).
enter("Costa_700_1317", "113", 65).
exit("Costa_700_1317", "113", 135).
enter("Costa_700_1317", "209", 135).
exit("Costa_700_1317", "209", 235).
origin("Audinot_3_133", "131").
enter("Audinot_3_133", "131", 0).
exit("Audinot_3_133", "131", 150).
enter("Audinot_3_133", "65", 150).
exit("Audinot_3_133", "65", 195).
enter("Audinot_3_133", "57[0]", 195).
exit("Audinot_3_133", "57[0]", 280).
enter("Audinot_3_133", "57[1]", 280).
exit("Audinot_3_133", "57[1]", 295).
enter("Audinot_3_133", "62", 295).
exit("Audinot_3_133", "62", 385).
enter("Audinot_3_133", "159", 385).
exit("Audinot_3_133", "159", 490).
enter("Audinot_3_133", "42", 490).
exit("Audinot_3_133", "42", 510).
enter("Audinot_3_133", "39", 510).
exit("Audinot_3_133", "39", 530).
enter("Audinot_3_133", "35", 530).
exit("Audinot_3_133", "35", 585).
enter("Audinot_3_133", "38", 585).
exit("Audinot_3_133", "38", 645).
enter("Audinot_3_133", "15", 645).
exit("Audinot_3_133", "15", 720).
enter("Audinot_3_133", "14", 720).
exit("Audinot_3_133", "14", 760).
origin("Togliatti_10_682", "[89[0]|20002+89[1][0]|89[1][1]]").
enter("Togliatti_10_682", "[89[0]|20002+89[1][0]|89[1][1]]", 0).
exit("Togliatti_10_682", "[89[0]|20002+89[1][0]|89[1][1]]", 20).
enter("Togliatti_10_682", "91", 20).
exit("Togliatti_10_682", "91", 25).
enter("Togliatti_10_682", "186", 25).
exit("Togliatti_10_682", "186", 30).
enter("Togliatti_10_682", "[109[0]|109[1][0]+20003|109[1][1]]", 30).
exit("Togliatti_10_682", "[109[0]|109[1][0]+20003|109[1][1]]", 60).
enter("Togliatti_10_682", "[116|46]", 60).
exit("Togliatti_10_682", "[116|46]", 120).
enter("Togliatti_10_682", "201", 120).
exit("Togliatti_10_682", "201", 295).
enter("Togliatti_10_682", "201c", 295).
exit("Togliatti_10_682", "201c", 440).
enter("Togliatti_10_682", "204a[0]", 440).
exit("Togliatti_10_682", "204a[0]", 1460).
enter("Togliatti_10_682", "204b[0]", 1460).
exit("Togliatti_10_682", "204b[0]", 1520).
enter("Togliatti_10_682", "204[1][0]", 1520).
exit("Togliatti_10_682", "204[1][0]", 1555).
enter("Togliatti_10_682", "204[1][1]", 1555).
exit("Togliatti_10_682", "204[1][1]", 2370).
origin("Pepoli_1_1996", "159").
enter("Pepoli_1_1996", "159", 0).
exit("Pepoli_1_1996", "159", 105).
enter("Pepoli_1_1996", "42", 105).
exit("Pepoli_1_1996", "42", 125).
enter("Pepoli_1_1996", "39", 125).
exit("Pepoli_1_1996", "39", 145).
enter("Pepoli_1_1996", "35", 145).
exit("Pepoli_1_1996", "35", 200).
enter("Pepoli_1_1996", "38", 200).
exit("Pepoli_1_1996", "38", 260).
enter("Pepoli_1_1996", "50", 260).
exit("Pepoli_1_1996", "50", 320).
enter("Pepoli_1_1996", "19", 320).
exit("Pepoli_1_1996", "19", 355).
enter("Pepoli_1_1996", "[22|59]", 355).
exit("Pepoli_1_1996", "[22|59]", 425).
enter("Pepoli_1_1996", "(53cd|53[0]|53[1][0])", 425).
exit("Pepoli_1_1996", "(53cd|53[0]|53[1][0])", 445).
enter("Pepoli_1_1996", "79", 445).
exit("Pepoli_1_1996", "79", 515).
enter("Pepoli_1_1996", "[68|11]", 515).
exit("Pepoli_1_1996", "[68|11]", 570).
enter("Pepoli_1_1996", "86", 570).
exit("Pepoli_1_1996", "86", 600).
origin("Vittorio_Veneto_10_589", "224[0]").
enter("Vittorio_Veneto_10_589", "224[0]", 0).
exit("Vittorio_Veneto_10_589", "224[0]", 140).
enter("Vittorio_Veneto_10_589", "224[1]", 140).
exit("Vittorio_Veneto_10_589", "224[1]", 200).
enter("Vittorio_Veneto_10_589", "[181|18]", 200).
exit("Vittorio_Veneto_10_589", "[181|18]", 275).
enter("Vittorio_Veneto_10_589", "69", 275).
exit("Vittorio_Veneto_10_589", "69", 370).
enter("Vittorio_Veneto_10_589", "161", 370).
exit("Vittorio_Veneto_10_589", "161", 395).
enter("Vittorio_Veneto_10_589", "122", 395).
exit("Vittorio_Veneto_10_589", "122", 495).
enter("Vittorio_Veneto_10_589", "1b", 495).
exit("Vittorio_Veneto_10_589", "1b", 555).
enter("Vittorio_Veneto_10_589", "1", 555).
exit("Vittorio_Veneto_10_589", "1", 590).
enter("Vittorio_Veneto_10_589", "204a[0]", 590).
exit("Vittorio_Veneto_10_589", "204a[0]", 710).
enter("Vittorio_Veneto_10_589", "204b[0]", 710).
exit("Vittorio_Veneto_10_589", "204b[0]", 715).
enter("Vittorio_Veneto_10_589", "204[1][0]", 715).
exit("Vittorio_Veneto_10_589", "204[1][0]", 750).
enter("Vittorio_Veneto_10_589", "204[1][1]", 750).
exit("Vittorio_Veneto_10_589", "204[1][1]", 785).
origin("Audinot_7_141", "131").
enter("Audinot_7_141", "131", 0).
exit("Audinot_7_141", "131", 30).
enter("Audinot_7_141", "119", 30).
exit("Audinot_7_141", "119", 85).
enter("Audinot_7_141", "[116|46]", 85).
exit("Audinot_7_141", "[116|46]", 155).
enter("Audinot_7_141", "113", 155).
exit("Audinot_7_141", "113", 195).
enter("Audinot_7_141", "209", 195).
exit("Audinot_7_141", "209", 930).
origin("Costa_50_1349", "[109[0]|109[1][0]+20003|109[1][1]]").
enter("Costa_50_1349", "[109[0]|109[1][0]+20003|109[1][1]]", 0).
exit("Costa_50_1349", "[109[0]|109[1][0]+20003|109[1][1]]", 35).
enter("Costa_50_1349", "120", 35).
exit("Costa_50_1349", "120", 110).
enter("Costa_50_1349", "65", 110).
exit("Costa_50_1349", "65", 155).
enter("Costa_50_1349", "[200|60]", 155).
exit("Costa_50_1349", "[200|60]", 290).
origin("Togliatti_10_537", "194").
enter("Togliatti_10_537", "194", 0).
exit("Togliatti_10_537", "194", 60).
enter("Togliatti_10_537", "91", 60).
exit("Togliatti_10_537", "91", 75).
enter("Togliatti_10_537", "186", 75).
exit("Togliatti_10_537", "186", 105).
enter("Togliatti_10_537", "[109[0]|109[1][0]+20003|109[1][1]]", 105).
exit("Togliatti_10_537", "[109[0]|109[1][0]+20003|109[1][1]]", 160).
enter("Togliatti_10_537", "[116|46]", 160).
exit("Togliatti_10_537", "[116|46]", 205).
enter("Togliatti_10_537", "201", 205).
exit("Togliatti_10_537", "201", 535).
enter("Togliatti_10_537", "201c", 535).
exit("Togliatti_10_537", "201c", 710).
enter("Togliatti_10_537", "204a[0]", 710).
exit("Togliatti_10_537", "204a[0]", 1600).
enter("Togliatti_10_537", "204b[0]", 1600).
exit("Togliatti_10_537", "204b[0]", 1610).
enter("Togliatti_10_537", "204[1][0]", 1610).
exit("Togliatti_10_537", "204[1][0]", 1645).
enter("Togliatti_10_537", "204[1][1]", 1645).
exit("Togliatti_10_537", "204[1][1]", 1680).
origin("XXI_Aprile_93_287", "122").
enter("XXI_Aprile_93_287", "122", 0).
exit("XXI_Aprile_93_287", "122", 55).
enter("XXI_Aprile_93_287", "1b", 55).
exit("XXI_Aprile_93_287", "1b", 115).
enter("XXI_Aprile_93_287", "1", 115).
exit("XXI_Aprile_93_287", "1", 150).
enter("XXI_Aprile_93_287", "204a[0]", 150).
exit("XXI_Aprile_93_287", "204a[0]", 270).
enter("XXI_Aprile_93_287", "204b[0]", 270).
exit("XXI_Aprile_93_287", "204b[0]", 275).
enter("XXI_Aprile_93_287", "54", 275).
exit("XXI_Aprile_93_287", "54", 300).
origin("Togliatti_10_413", "122").
enter("Togliatti_10_413", "122", 0).
exit("Togliatti_10_413", "122", 55).
enter("Togliatti_10_413", "1b", 55).
exit("Togliatti_10_413", "1b", 115).
enter("Togliatti_10_413", "1", 115).
exit("Togliatti_10_413", "1", 150).
enter("Togliatti_10_413", "204a[0]", 150).
exit("Togliatti_10_413", "204a[0]", 270).
enter("Togliatti_10_413", "204b[0]", 270).
exit("Togliatti_10_413", "204b[0]", 275).
enter("Togliatti_10_413", "204[1][0]", 275).
exit("Togliatti_10_413", "204[1][0]", 310).
enter("Togliatti_10_413", "204[1][1]", 310).
exit("Togliatti_10_413", "204[1][1]", 345).
origin("Vittorio_Veneto_10_417", "161").
enter("Vittorio_Veneto_10_417", "161", 0).
exit("Vittorio_Veneto_10_417", "161", 50).
enter("Vittorio_Veneto_10_417", "122", 50).
exit("Vittorio_Veneto_10_417", "122", 150).
enter("Vittorio_Veneto_10_417", "1b", 150).
exit("Vittorio_Veneto_10_417", "1b", 210).
enter("Vittorio_Veneto_10_417", "1", 210).
exit("Vittorio_Veneto_10_417", "1", 245).
enter("Vittorio_Veneto_10_417", "204a[0]", 245).
exit("Vittorio_Veneto_10_417", "204a[0]", 365).
enter("Vittorio_Veneto_10_417", "204b[0]", 365).
exit("Vittorio_Veneto_10_417", "204b[0]", 370).
enter("Vittorio_Veneto_10_417", "204[1][0]", 370).
exit("Vittorio_Veneto_10_417", "204[1][0]", 405).
enter("Vittorio_Veneto_10_417", "204[1][1]", 405).
exit("Vittorio_Veneto_10_417", "204[1][1]", 440).
origin("Togliatti_10_577", "85").
enter("Togliatti_10_577", "85", 0).
exit("Togliatti_10_577", "85", 60).
enter("Togliatti_10_577", "72[0]", 60).
exit("Togliatti_10_577", "72[0]", 325).
enter("Togliatti_10_577", "72[1]", 325).
exit("Togliatti_10_577", "72[1]", 670).
enter("Togliatti_10_577", "69", 670).
exit("Togliatti_10_577", "69", 785).
enter("Togliatti_10_577", "161", 785).
exit("Togliatti_10_577", "161", 825).
enter("Togliatti_10_577", "122", 825).
exit("Togliatti_10_577", "122", 1075).
enter("Togliatti_10_577", "1b", 1075).
exit("Togliatti_10_577", "1b", 1580).
enter("Togliatti_10_577", "1", 1580).
exit("Togliatti_10_577", "1", 1735).
enter("Togliatti_10_577", "204a[0]", 1735).
exit("Togliatti_10_577", "204a[0]", 1995).
enter("Togliatti_10_577", "204b[0]", 1995).
exit("Togliatti_10_577", "204b[0]", 2165).
enter("Togliatti_10_577", "204[1][0]", 2165).
exit("Togliatti_10_577", "204[1][0]", 2240).
enter("Togliatti_10_577", "204[1][1]", 2240).
exit("Togliatti_10_577", "204[1][1]", 2705).
origin("XXI_Aprile_94_661", "204a[0]").
enter("XXI_Aprile_94_661", "204a[0]", 0).
exit("XXI_Aprile_94_661", "204a[0]", 120).
enter("XXI_Aprile_94_661", "204b[0]", 120).
exit("XXI_Aprile_94_661", "204b[0]", 125).
enter("XXI_Aprile_94_661", "54", 125).
exit("XXI_Aprile_94_661", "54", 150).
origin("Pepoli_3_1826", "39").
enter("Pepoli_3_1826", "39", 0).
exit("Pepoli_3_1826", "39", 20).
enter("Pepoli_3_1826", "35", 20).
exit("Pepoli_3_1826", "35", 75).
enter("Pepoli_3_1826", "38", 75).
exit("Pepoli_3_1826", "38", 135).
enter("Pepoli_3_1826", "15", 135).
exit("Pepoli_3_1826", "15", 210).
enter("Pepoli_3_1826", "14", 210).
exit("Pepoli_3_1826", "14", 250).
origin("Togliatti_10_677", "85").
enter("Togliatti_10_677", "85", 0).
exit("Togliatti_10_677", "85", 60).
enter("Togliatti_10_677", "72[0]", 60).
exit("Togliatti_10_677", "72[0]", 290).
enter("Togliatti_10_677", "72[1]", 290).
exit("Togliatti_10_677", "72[1]", 355).
enter("Togliatti_10_677", "69", 355).
exit("Togliatti_10_677", "69", 495).
enter("Togliatti_10_677", "161", 495).
exit("Togliatti_10_677", "161", 525).
enter("Togliatti_10_677", "194", 525).
exit("Togliatti_10_677", "194", 590).
enter("Togliatti_10_677", "91", 590).
exit("Togliatti_10_677", "91", 600).
enter("Togliatti_10_677", "186", 600).
exit("Togliatti_10_677", "186", 635).
enter("Togliatti_10_677", "[109[0]|109[1][0]+20003|109[1][1]]", 635).
exit("Togliatti_10_677", "[109[0]|109[1][0]+20003|109[1][1]]", 645).
enter("Togliatti_10_677", "[116|46]", 645).
exit("Togliatti_10_677", "[116|46]", 690).
enter("Togliatti_10_677", "201", 690).
exit("Togliatti_10_677", "201", 740).
enter("Togliatti_10_677", "201c", 740).
exit("Togliatti_10_677", "201c", 835).
enter("Togliatti_10_677", "204a[0]", 835).
exit("Togliatti_10_677", "204a[0]", 1645).
enter("Togliatti_10_677", "204b[0]", 1645).
exit("Togliatti_10_677", "204b[0]", 1730).
enter("Togliatti_10_677", "204[1][0]", 1730).
exit("Togliatti_10_677", "204[1][0]", 1770).
enter("Togliatti_10_677", "204[1][1]", 1770).
exit("Togliatti_10_677", "204[1][1]", 2640).
origin("Costa_50_1369", "91").
enter("Costa_50_1369", "91", 0).
exit("Costa_50_1369", "91", 20).
enter("Costa_50_1369", "186", 20).
exit("Costa_50_1369", "186", 50).
enter("Costa_50_1369", "[109[0]|109[1][0]+20003|109[1][1]]", 50).
exit("Costa_50_1369", "[109[0]|109[1][0]+20003|109[1][1]]", 85).
enter("Costa_50_1369", "120", 85).
exit("Costa_50_1369", "120", 160).
enter("Costa_50_1369", "65", 160).
exit("Costa_50_1369", "65", 205).
enter("Costa_50_1369", "[200|60]", 205).
exit("Costa_50_1369", "[200|60]", 340).
origin("Togliatti_10_580", "161").
enter("Togliatti_10_580", "161", 0).
exit("Togliatti_10_580", "161", 20).
enter("Togliatti_10_580", "122", 20).
exit("Togliatti_10_580", "122", 995).
enter("Togliatti_10_580", "1b", 995).
exit("Togliatti_10_580", "1b", 1185).
enter("Togliatti_10_580", "1", 1185).
exit("Togliatti_10_580", "1", 1625).
enter("Togliatti_10_580", "204a[0]", 1625).
exit("Togliatti_10_580", "204a[0]", 1750).
enter("Togliatti_10_580", "204b[0]", 1750).
exit("Togliatti_10_580", "204b[0]", 1885).
enter("Togliatti_10_580", "204[1][0]", 1885).
exit("Togliatti_10_580", "204[1][0]", 1920).
enter("Togliatti_10_580", "204[1][1]", 1920).
exit("Togliatti_10_580", "204[1][1]", 2340).
origin("Vittorio_Veneto_2_592", "224[0]").
enter("Vittorio_Veneto_2_592", "224[0]", 0).
exit("Vittorio_Veneto_2_592", "224[0]", 140).
enter("Vittorio_Veneto_2_592", "224[1]", 140).
exit("Vittorio_Veneto_2_592", "224[1]", 200).
enter("Vittorio_Veneto_2_592", "[181|18]", 200).
exit("Vittorio_Veneto_2_592", "[181|18]", 275).
enter("Vittorio_Veneto_2_592", "[17|71]", 275).
exit("Vittorio_Veneto_2_592", "[17|71]", 330).
enter("Vittorio_Veneto_2_592", "67", 330).
exit("Vittorio_Veneto_2_592", "67", 340).
enter("Vittorio_Veneto_2_592", "[80|127]", 340).
exit("Vittorio_Veneto_2_592", "[80|127]", 375).
enter("Vittorio_Veneto_2_592", "(77[1][0])", 375).
exit("Vittorio_Veneto_2_592", "(77[1][0])", 395).
enter("Vittorio_Veneto_2_592", "77[1][1]", 395).
exit("Vittorio_Veneto_2_592", "77[1][1]", 435).
origin("Pepoli_3_1891", "159").
enter("Pepoli_3_1891", "159", 0).
exit("Pepoli_3_1891", "159", 105).
enter("Pepoli_3_1891", "42", 105).
exit("Pepoli_3_1891", "42", 125).
enter("Pepoli_3_1891", "39", 125).
exit("Pepoli_3_1891", "39", 145).
enter("Pepoli_3_1891", "35", 145).
exit("Pepoli_3_1891", "35", 200).
enter("Pepoli_3_1891", "38", 200).
exit("Pepoli_3_1891", "38", 260).
enter("Pepoli_3_1891", "15", 260).
exit("Pepoli_3_1891", "15", 335).
enter("Pepoli_3_1891", "14", 335).
exit("Pepoli_3_1891", "14", 375).
origin("Vittorio_Veneto_10_562", "224[0]").
enter("Vittorio_Veneto_10_562", "224[0]", 0).
exit("Vittorio_Veneto_10_562", "224[0]", 140).
enter("Vittorio_Veneto_10_562", "224[1]", 140).
exit("Vittorio_Veneto_10_562", "224[1]", 200).
enter("Vittorio_Veneto_10_562", "[181|18]", 200).
exit("Vittorio_Veneto_10_562", "[181|18]", 275).
enter("Vittorio_Veneto_10_562", "69", 275).
exit("Vittorio_Veneto_10_562", "69", 370).
enter("Vittorio_Veneto_10_562", "161", 370).
exit("Vittorio_Veneto_10_562", "161", 395).
enter("Vittorio_Veneto_10_562", "122", 395).
exit("Vittorio_Veneto_10_562", "122", 495).
enter("Vittorio_Veneto_10_562", "1b", 495).
exit("Vittorio_Veneto_10_562", "1b", 555).
enter("Vittorio_Veneto_10_562", "1", 555).
exit("Vittorio_Veneto_10_562", "1", 590).
enter("Vittorio_Veneto_10_562", "204a[0]", 590).
exit("Vittorio_Veneto_10_562", "204a[0]", 710).
enter("Vittorio_Veneto_10_562", "204b[0]", 710).
exit("Vittorio_Veneto_10_562", "204b[0]", 715).
enter("Vittorio_Veneto_10_562", "204[1][0]", 715).
exit("Vittorio_Veneto_10_562", "204[1][0]", 750).
enter("Vittorio_Veneto_10_562", "204[1][1]", 750).
exit("Vittorio_Veneto_10_562", "204[1][1]", 785).
origin("XXI_Aprile_102_180", "122").
enter("XXI_Aprile_102_180", "122", 0).
exit("XXI_Aprile_102_180", "122", 30).
enter("XXI_Aprile_102_180", "1b", 30).
exit("XXI_Aprile_102_180", "1b", 90).
enter("XXI_Aprile_102_180", "1", 90).
exit("XXI_Aprile_102_180", "1", 125).
enter("XXI_Aprile_102_180", "204a[0]", 125).
exit("XXI_Aprile_102_180", "204a[0]", 245).
enter("XXI_Aprile_102_180", "204b[0]", 245).
exit("XXI_Aprile_102_180", "204b[0]", 250).
enter("XXI_Aprile_102_180", "204[1][0]", 250).
exit("XXI_Aprile_102_180", "204[1][0]", 285).
enter("XXI_Aprile_102_180", "204[1][1]", 285).
exit("XXI_Aprile_102_180", "204[1][1]", 320).
origin("Togliatti_11_681", "119").
enter("Togliatti_11_681", "119", 0).
exit("Togliatti_11_681", "119", 40).
enter("Togliatti_11_681", "[116|46]", 40).
exit("Togliatti_11_681", "[116|46]", 95).
enter("Togliatti_11_681", "201", 95).
exit("Togliatti_11_681", "201", 390).
enter("Togliatti_11_681", "201c", 390).
exit("Togliatti_11_681", "201c", 425).
enter("Togliatti_11_681", "204a[0]", 425).
exit("Togliatti_11_681", "204a[0]", 535).
enter("Togliatti_11_681", "124", 535).
exit("Togliatti_11_681", "124", 2280).
origin("Togliatti_10_720", "61").
enter("Togliatti_10_720", "61", 0).
exit("Togliatti_10_720", "61", 30).
enter("Togliatti_10_720", "58[0]", 30).
exit("Togliatti_10_720", "58[0]", 40).
enter("Togliatti_10_720", "58[1]", 40).
exit("Togliatti_10_720", "58[1]", 55).
enter("Togliatti_10_720", "197", 55).
exit("Togliatti_10_720", "197", 75).
enter("Togliatti_10_720", "[109[0]|109[1][0]+20003|109[1][1]]", 75).
exit("Togliatti_10_720", "[109[0]|109[1][0]+20003|109[1][1]]", 85).
enter("Togliatti_10_720", "[116|46]", 85).
exit("Togliatti_10_720", "[116|46]", 130).
enter("Togliatti_10_720", "201", 130).
exit("Togliatti_10_720", "201", 395).
enter("Togliatti_10_720", "201c", 395).
exit("Togliatti_10_720", "201c", 450).
enter("Togliatti_10_720", "204a[0]", 450).
exit("Togliatti_10_720", "204a[0]", 1465).
enter("Togliatti_10_720", "204b[0]", 1465).
exit("Togliatti_10_720", "204b[0]", 1580).
enter("Togliatti_10_720", "204[1][0]", 1580).
exit("Togliatti_10_720", "204[1][0]", 1615).
enter("Togliatti_10_720", "204[1][1]", 1615).
exit("Togliatti_10_720", "204[1][1]", 2500).
origin("Togliatti_10_657", "161").
enter("Togliatti_10_657", "161", 0).
exit("Togliatti_10_657", "161", 55).
enter("Togliatti_10_657", "194", 55).
exit("Togliatti_10_657", "194", 140).
enter("Togliatti_10_657", "91", 140).
exit("Togliatti_10_657", "91", 160).
enter("Togliatti_10_657", "186", 160).
exit("Togliatti_10_657", "186", 180).
enter("Togliatti_10_657", "[109[0]|109[1][0]+20003|109[1][1]]", 180).
exit("Togliatti_10_657", "[109[0]|109[1][0]+20003|109[1][1]]", 215).
enter("Togliatti_10_657", "[116|46]", 215).
exit("Togliatti_10_657", "[116|46]", 265).
enter("Togliatti_10_657", "201", 265).
exit("Togliatti_10_657", "201", 315).
enter("Togliatti_10_657", "201c", 315).
exit("Togliatti_10_657", "201c", 350).
enter("Togliatti_10_657", "204a[0]", 350).
exit("Togliatti_10_657", "204a[0]", 1270).
enter("Togliatti_10_657", "204b[0]", 1270).
exit("Togliatti_10_657", "204b[0]", 1385).
enter("Togliatti_10_657", "204[1][0]", 1385).
exit("Togliatti_10_657", "204[1][0]", 1420).
enter("Togliatti_10_657", "204[1][1]", 1420).
exit("Togliatti_10_657", "204[1][1]", 1590).
origin("Audinot_3_114", "57[0]").
enter("Audinot_3_114", "57[0]", 0).
exit("Audinot_3_114", "57[0]", 85).
enter("Audinot_3_114", "57[1]", 85).
exit("Audinot_3_114", "57[1]", 100).
enter("Audinot_3_114", "62", 100).
exit("Audinot_3_114", "62", 190).
enter("Audinot_3_114", "159", 190).
exit("Audinot_3_114", "159", 295).
enter("Audinot_3_114", "42", 295).
exit("Audinot_3_114", "42", 315).
enter("Audinot_3_114", "39", 315).
exit("Audinot_3_114", "39", 335).
enter("Audinot_3_114", "35", 335).
exit("Audinot_3_114", "35", 390).
enter("Audinot_3_114", "38", 390).
exit("Audinot_3_114", "38", 450).
enter("Audinot_3_114", "15", 450).
exit("Audinot_3_114", "15", 525).
enter("Audinot_3_114", "14", 525).
exit("Audinot_3_114", "14", 565).
origin("XXI_Aprile_104_961", "122").
enter("XXI_Aprile_104_961", "122", 0).
exit("XXI_Aprile_104_961", "122", 100).
enter("XXI_Aprile_104_961", "1b", 100).
exit("XXI_Aprile_104_961", "1b", 160).
enter("XXI_Aprile_104_961", "1", 160).
exit("XXI_Aprile_104_961", "1", 195).
enter("XXI_Aprile_104_961", "204a[0]", 195).
exit("XXI_Aprile_104_961", "204a[0]", 315).
enter("XXI_Aprile_104_961", "204b[0]", 315).
exit("XXI_Aprile_104_961", "204b[0]", 320).
enter("XXI_Aprile_104_961", "204[1][0]", 320).
exit("XXI_Aprile_104_961", "204[1][0]", 355).
enter("XXI_Aprile_104_961", "204[1][1]", 355).
exit("XXI_Aprile_104_961", "204[1][1]", 390).
origin("Audinot_10_90", "201").
enter("Audinot_10_90", "201", 0).
exit("Audinot_10_90", "201", 135).
enter("Audinot_10_90", "201c", 135).
exit("Audinot_10_90", "201c", 170).
enter("Audinot_10_90", "204a[0]", 170).
exit("Audinot_10_90", "204a[0]", 290).
enter("Audinot_10_90", "204b[0]", 290).
exit("Audinot_10_90", "204b[0]", 295).
enter("Audinot_10_90", "204[1][0]", 295).
exit("Audinot_10_90", "204[1][0]", 330).
enter("Audinot_10_90", "204[1][1]", 330).
exit("Audinot_10_90", "204[1][1]", 365).
origin("Vittorio_Veneto_2_575", "224[0]").
enter("Vittorio_Veneto_2_575", "224[0]", 0).
exit("Vittorio_Veneto_2_575", "224[0]", 140).
enter("Vittorio_Veneto_2_575", "224[1]", 140).
exit("Vittorio_Veneto_2_575", "224[1]", 200).
enter("Vittorio_Veneto_2_575", "[181|18]", 200).
exit("Vittorio_Veneto_2_575", "[181|18]", 275).
enter("Vittorio_Veneto_2_575", "[17|71]", 275).
exit("Vittorio_Veneto_2_575", "[17|71]", 330).
enter("Vittorio_Veneto_2_575", "67", 330).
exit("Vittorio_Veneto_2_575", "67", 345).
enter("Vittorio_Veneto_2_575", "[80|127]", 345).
exit("Vittorio_Veneto_2_575", "[80|127]", 365).
enter("Vittorio_Veneto_2_575", "(77[1][0])", 365).
exit("Vittorio_Veneto_2_575", "(77[1][0])", 385).
enter("Vittorio_Veneto_2_575", "77[1][1]", 385).
exit("Vittorio_Veneto_2_575", "77[1][1]", 425).
origin("XXI_Aprile_92_616", "161").
enter("XXI_Aprile_92_616", "161", 0).
exit("XXI_Aprile_92_616", "161", 50).
enter("XXI_Aprile_92_616", "122", 50).
exit("XXI_Aprile_92_616", "122", 150).
enter("XXI_Aprile_92_616", "1b", 150).
exit("XXI_Aprile_92_616", "1b", 210).
enter("XXI_Aprile_92_616", "1", 210).
exit("XXI_Aprile_92_616", "1", 245).
enter("XXI_Aprile_92_616", "204a[0]", 245).
exit("XXI_Aprile_92_616", "204a[0]", 365).
enter("XXI_Aprile_92_616", "204b[0]", 365).
exit("XXI_Aprile_92_616", "204b[0]", 370).
enter("XXI_Aprile_92_616", "54", 370).
exit("XXI_Aprile_92_616", "54", 395).
origin("Vittorio_Veneto_2_505", "[181|18]").
enter("Vittorio_Veneto_2_505", "[181|18]", 0).
exit("Vittorio_Veneto_2_505", "[181|18]", 75).
enter("Vittorio_Veneto_2_505", "[17|71]", 75).
exit("Vittorio_Veneto_2_505", "[17|71]", 155).
enter("Vittorio_Veneto_2_505", "67", 155).
exit("Vittorio_Veneto_2_505", "67", 185).
enter("Vittorio_Veneto_2_505", "[80|127]", 185).
exit("Vittorio_Veneto_2_505", "[80|127]", 250).
enter("Vittorio_Veneto_2_505", "(77[1][0])", 250).
exit("Vittorio_Veneto_2_505", "(77[1][0])", 270).
enter("Vittorio_Veneto_2_505", "77[1][1]", 270).
exit("Vittorio_Veneto_2_505", "77[1][1]", 330).
origin("Togliatti_9_561", "85").
enter("Togliatti_9_561", "85", 0).
exit("Togliatti_9_561", "85", 60).
enter("Togliatti_9_561", "72[0]", 60).
exit("Togliatti_9_561", "72[0]", 115).
enter("Togliatti_9_561", "72[1]", 115).
exit("Togliatti_9_561", "72[1]", 230).
enter("Togliatti_9_561", "69", 230).
exit("Togliatti_9_561", "69", 300).
enter("Togliatti_9_561", "161", 300).
exit("Togliatti_9_561", "161", 325).
enter("Togliatti_9_561", "122", 325).
exit("Togliatti_9_561", "122", 375).
enter("Togliatti_9_561", "1b", 375).
exit("Togliatti_9_561", "1b", 670).
enter("Togliatti_9_561", "1", 670).
exit("Togliatti_9_561", "1", 710).
enter("Togliatti_9_561", "204a[0]", 710).
exit("Togliatti_9_561", "204a[0]", 900).
enter("Togliatti_9_561", "204b[0]", 900).
exit("Togliatti_9_561", "204b[0]", 1430).
enter("Togliatti_9_561", "54", 1430).
exit("Togliatti_9_561", "54", 2265).
origin("Vittorio_Veneto_10_322", "1b").
enter("Vittorio_Veneto_10_322", "1b", 0).
exit("Vittorio_Veneto_10_322", "1b", 60).
enter("Vittorio_Veneto_10_322", "1", 60).
exit("Vittorio_Veneto_10_322", "1", 95).
enter("Vittorio_Veneto_10_322", "204a[0]", 95).
exit("Vittorio_Veneto_10_322", "204a[0]", 215).
enter("Vittorio_Veneto_10_322", "204b[0]", 215).
exit("Vittorio_Veneto_10_322", "204b[0]", 220).
enter("Vittorio_Veneto_10_322", "204[1][0]", 220).
exit("Vittorio_Veneto_10_322", "204[1][0]", 255).
enter("Vittorio_Veneto_10_322", "204[1][1]", 255).
exit("Vittorio_Veneto_10_322", "204[1][1]", 290).
origin("Togliatti_10_585", "161").
enter("Togliatti_10_585", "161", 0).
exit("Togliatti_10_585", "161", 60).
enter("Togliatti_10_585", "122", 60).
exit("Togliatti_10_585", "122", 1185).
enter("Togliatti_10_585", "1b", 1185).
exit("Togliatti_10_585", "1b", 1675).
enter("Togliatti_10_585", "1", 1675).
exit("Togliatti_10_585", "1", 1755).
enter("Togliatti_10_585", "204a[0]", 1755).
exit("Togliatti_10_585", "204a[0]", 2100).
enter("Togliatti_10_585", "204b[0]", 2100).
exit("Togliatti_10_585", "204b[0]", 2160).
enter("Togliatti_10_585", "204[1][0]", 2160).
exit("Togliatti_10_585", "204[1][0]", 2220).
enter("Togliatti_10_585", "204[1][1]", 2220).
exit("Togliatti_10_585", "204[1][1]", 2320).
origin("Togliatti_10_635", "85").
enter("Togliatti_10_635", "85", 0).
exit("Togliatti_10_635", "85", 110).
enter("Togliatti_10_635", "72[0]", 110).
exit("Togliatti_10_635", "72[0]", 660).
enter("Togliatti_10_635", "72[1]", 660).
exit("Togliatti_10_635", "72[1]", 695).
enter("Togliatti_10_635", "69", 695).
exit("Togliatti_10_635", "69", 740).
enter("Togliatti_10_635", "161", 740).
exit("Togliatti_10_635", "161", 885).
enter("Togliatti_10_635", "194", 885).
exit("Togliatti_10_635", "194", 900).
enter("Togliatti_10_635", "91", 900).
exit("Togliatti_10_635", "91", 905).
enter("Togliatti_10_635", "186", 905).
exit("Togliatti_10_635", "186", 930).
enter("Togliatti_10_635", "[109[0]|109[1][0]+20003|109[1][1]]", 930).
exit("Togliatti_10_635", "[109[0]|109[1][0]+20003|109[1][1]]", 945).
enter("Togliatti_10_635", "[116|46]", 945).
exit("Togliatti_10_635", "[116|46]", 1025).
enter("Togliatti_10_635", "201", 1025).
exit("Togliatti_10_635", "201", 1090).
enter("Togliatti_10_635", "201c", 1090).
exit("Togliatti_10_635", "201c", 1135).
enter("Togliatti_10_635", "204a[0]", 1135).
exit("Togliatti_10_635", "204a[0]", 1790).
enter("Togliatti_10_635", "204b[0]", 1790).
exit("Togliatti_10_635", "204b[0]", 1870).
enter("Togliatti_10_635", "204[1][0]", 1870).
exit("Togliatti_10_635", "204[1][0]", 1905).
enter("Togliatti_10_635", "204[1][1]", 1905).
exit("Togliatti_10_635", "204[1][1]", 2060).
origin("Togliatti_10_499", "72[0]").
enter("Togliatti_10_499", "72[0]", 0).
exit("Togliatti_10_499", "72[0]", 75).
enter("Togliatti_10_499", "72[1]", 75).
exit("Togliatti_10_499", "72[1]", 115).
enter("Togliatti_10_499", "69", 115).
exit("Togliatti_10_499", "69", 210).
enter("Togliatti_10_499", "161", 210).
exit("Togliatti_10_499", "161", 260).
enter("Togliatti_10_499", "122", 260).
exit("Togliatti_10_499", "122", 360).
enter("Togliatti_10_499", "1b", 360).
exit("Togliatti_10_499", "1b", 420).
enter("Togliatti_10_499", "1", 420).
exit("Togliatti_10_499", "1", 455).
enter("Togliatti_10_499", "204a[0]", 455).
exit("Togliatti_10_499", "204a[0]", 575).
enter("Togliatti_10_499", "204b[0]", 575).
exit("Togliatti_10_499", "204b[0]", 580).
enter("Togliatti_10_499", "204[1][0]", 580).
exit("Togliatti_10_499", "204[1][0]", 615).
enter("Togliatti_10_499", "204[1][1]", 615).
exit("Togliatti_10_499", "204[1][1]", 650).
origin("Costa_70_1124", "117").
enter("Costa_70_1124", "117", 0).
exit("Costa_70_1124", "117", 45).
enter("Costa_70_1124", "209", 45).
exit("Costa_70_1124", "209", 650).
origin("XXI_Aprile_102_588", "122").
enter("XXI_Aprile_102_588", "122", 0).
exit("XXI_Aprile_102_588", "122", 100).
enter("XXI_Aprile_102_588", "1b", 100).
exit("XXI_Aprile_102_588", "1b", 160).
enter("XXI_Aprile_102_588", "1", 160).
exit("XXI_Aprile_102_588", "1", 195).
enter("XXI_Aprile_102_588", "204a[0]", 195).
exit("XXI_Aprile_102_588", "204a[0]", 315).
enter("XXI_Aprile_102_588", "204b[0]", 315).
exit("XXI_Aprile_102_588", "204b[0]", 320).
enter("XXI_Aprile_102_588", "204[1][0]", 320).
exit("XXI_Aprile_102_588", "204[1][0]", 355).
enter("XXI_Aprile_102_588", "204[1][1]", 355).
exit("XXI_Aprile_102_588", "204[1][1]", 390).
origin("XXI_Aprile_9_981", "161").
enter("XXI_Aprile_9_981", "161", 0).
exit("XXI_Aprile_9_981", "161", 50).
enter("XXI_Aprile_9_981", "122", 50).
exit("XXI_Aprile_9_981", "122", 150).
enter("XXI_Aprile_9_981", "1b", 150).
exit("XXI_Aprile_9_981", "1b", 210).
enter("XXI_Aprile_9_981", "1", 210).
exit("XXI_Aprile_9_981", "1", 245).
enter("XXI_Aprile_9_981", "204a[0]", 245).
exit("XXI_Aprile_9_981", "204a[0]", 365).
enter("XXI_Aprile_9_981", "204b[0]", 365).
exit("XXI_Aprile_9_981", "204b[0]", 370).
enter("XXI_Aprile_9_981", "54", 370).
exit("XXI_Aprile_9_981", "54", 395).
origin("Silvani_1_1408", "33").
enter("Silvani_1_1408", "33", 0).
exit("Silvani_1_1408", "33", 45).
enter("Silvani_1_1408", "10", 45).
exit("Silvani_1_1408", "10", 70).
enter("Silvani_1_1408", "[13|104]", 70).
exit("Silvani_1_1408", "[13|104]", 155).
enter("Silvani_1_1408", "24", 155).
exit("Silvani_1_1408", "24", 350).
enter("Silvani_1_1408", "[22|59]", 350).
exit("Silvani_1_1408", "[22|59]", 425).
enter("Silvani_1_1408", "(53cd|53[0]|53[1][0])", 425).
exit("Silvani_1_1408", "(53cd|53[0]|53[1][0])", 480).
enter("Silvani_1_1408", "79", 480).
exit("Silvani_1_1408", "79", 495).
enter("Silvani_1_1408", "[68|11]", 495).
exit("Silvani_1_1408", "[68|11]", 585).
enter("Silvani_1_1408", "86", 585).
exit("Silvani_1_1408", "86", 765).
origin("Togliatti_10_446", "161").
enter("Togliatti_10_446", "161", 0).
exit("Togliatti_10_446", "161", 25).
enter("Togliatti_10_446", "122", 25).
exit("Togliatti_10_446", "122", 80).
enter("Togliatti_10_446", "1b", 80).
exit("Togliatti_10_446", "1b", 140).
enter("Togliatti_10_446", "1", 140).
exit("Togliatti_10_446", "1", 175).
enter("Togliatti_10_446", "204a[0]", 175).
exit("Togliatti_10_446", "204a[0]", 295).
enter("Togliatti_10_446", "204b[0]", 295).
exit("Togliatti_10_446", "204b[0]", 300).
enter("Togliatti_10_446", "204[1][0]", 300).
exit("Togliatti_10_446", "204[1][0]", 335).
enter("Togliatti_10_446", "204[1][1]", 335).
exit("Togliatti_10_446", "204[1][1]", 370).
origin("Togliatti_10_362", "122").
enter("Togliatti_10_362", "122", 0).
exit("Togliatti_10_362", "122", 325).
enter("Togliatti_10_362", "1b", 325).
exit("Togliatti_10_362", "1b", 875).
enter("Togliatti_10_362", "1", 875).
exit("Togliatti_10_362", "1", 1245).
enter("Togliatti_10_362", "204a[0]", 1245).
exit("Togliatti_10_362", "204a[0]", 1435).
enter("Togliatti_10_362", "204b[0]", 1435).
exit("Togliatti_10_362", "204b[0]", 1440).
enter("Togliatti_10_362", "204[1][0]", 1440).
exit("Togliatti_10_362", "204[1][0]", 1475).
enter("Togliatti_10_362", "204[1][1]", 1475).
exit("Togliatti_10_362", "204[1][1]", 2130).
origin("Togliatti_10_366", "122").
enter("Togliatti_10_366", "122", 0).
exit("Togliatti_10_366", "122", 345).
enter("Togliatti_10_366", "1b", 345).
exit("Togliatti_10_366", "1b", 895).
enter("Togliatti_10_366", "1", 895).
exit("Togliatti_10_366", "1", 1265).
enter("Togliatti_10_366", "204a[0]", 1265).
exit("Togliatti_10_366", "204a[0]", 1440).
enter("Togliatti_10_366", "204b[0]", 1440).
exit("Togliatti_10_366", "204b[0]", 1460).
enter("Togliatti_10_366", "204[1][0]", 1460).
exit("Togliatti_10_366", "204[1][0]", 1495).
enter("Togliatti_10_366", "204[1][1]", 1495).
exit("Togliatti_10_366", "204[1][1]", 1930).
origin("XXI_Aprile_103_801", "204b[0]").
enter("XXI_Aprile_103_801", "204b[0]", 0).
exit("XXI_Aprile_103_801", "204b[0]", 40).
enter("XXI_Aprile_103_801", "204[1][0]", 40).
exit("XXI_Aprile_103_801", "204[1][0]", 915).
enter("XXI_Aprile_103_801", "204[1][1]", 915).
exit("XXI_Aprile_103_801", "204[1][1]", 1005).
origin("Vittorio_Veneto_10_481", "69").
enter("Vittorio_Veneto_10_481", "69", 0).
exit("Vittorio_Veneto_10_481", "69", 95).
enter("Vittorio_Veneto_10_481", "161", 95).
exit("Vittorio_Veneto_10_481", "161", 145).
enter("Vittorio_Veneto_10_481", "122", 145).
exit("Vittorio_Veneto_10_481", "122", 245).
enter("Vittorio_Veneto_10_481", "1b", 245).
exit("Vittorio_Veneto_10_481", "1b", 305).
enter("Vittorio_Veneto_10_481", "1", 305).
exit("Vittorio_Veneto_10_481", "1", 340).
enter("Vittorio_Veneto_10_481", "204a[0]", 340).
exit("Vittorio_Veneto_10_481", "204a[0]", 460).
enter("Vittorio_Veneto_10_481", "204b[0]", 460).
exit("Vittorio_Veneto_10_481", "204b[0]", 465).
enter("Vittorio_Veneto_10_481", "204[1][0]", 465).
exit("Vittorio_Veneto_10_481", "204[1][0]", 500).
enter("Vittorio_Veneto_10_481", "204[1][1]", 500).
exit("Vittorio_Veneto_10_481", "204[1][1]", 535).
origin("Togliatti_9_665", "85").
enter("Togliatti_9_665", "85", 0).
exit("Togliatti_9_665", "85", 70).
enter("Togliatti_9_665", "72[0]", 70).
exit("Togliatti_9_665", "72[0]", 145).
enter("Togliatti_9_665", "72[1]", 145).
exit("Togliatti_9_665", "72[1]", 185).
enter("Togliatti_9_665", "69", 185).
exit("Togliatti_9_665", "69", 280).
enter("Togliatti_9_665", "161", 280).
exit("Togliatti_9_665", "161", 330).
enter("Togliatti_9_665", "122", 330).
exit("Togliatti_9_665", "122", 430).
enter("Togliatti_9_665", "1b", 430).
exit("Togliatti_9_665", "1b", 490).
enter("Togliatti_9_665", "1", 490).
exit("Togliatti_9_665", "1", 525).
enter("Togliatti_9_665", "204a[0]", 525).
exit("Togliatti_9_665", "204a[0]", 645).
enter("Togliatti_9_665", "204b[0]", 645).
exit("Togliatti_9_665", "204b[0]", 650).
enter("Togliatti_9_665", "54", 650).
exit("Togliatti_9_665", "54", 675).
origin("XXI_Aprile_93_615", "1b").
enter("XXI_Aprile_93_615", "1b", 0).
exit("XXI_Aprile_93_615", "1b", 60).
enter("XXI_Aprile_93_615", "1", 60).
exit("XXI_Aprile_93_615", "1", 95).
enter("XXI_Aprile_93_615", "204a[0]", 95).
exit("XXI_Aprile_93_615", "204a[0]", 215).
enter("XXI_Aprile_93_615", "204b[0]", 215).
exit("XXI_Aprile_93_615", "204b[0]", 220).
enter("XXI_Aprile_93_615", "54", 220).
exit("XXI_Aprile_93_615", "54", 245).
origin("Pepoli_3_1772", "38").
enter("Pepoli_3_1772", "38", 0).
exit("Pepoli_3_1772", "38", 60).
enter("Pepoli_3_1772", "15", 60).
exit("Pepoli_3_1772", "15", 135).
enter("Pepoli_3_1772", "14", 135).
exit("Pepoli_3_1772", "14", 175).
origin("XXI_Aprile_93_154", "204a[0]").
enter("XXI_Aprile_93_154", "204a[0]", 0).
exit("XXI_Aprile_93_154", "204a[0]", 70).
enter("XXI_Aprile_93_154", "204b[0]", 70).
exit("XXI_Aprile_93_154", "204b[0]", 90).
enter("XXI_Aprile_93_154", "54", 90).
exit("XXI_Aprile_93_154", "54", 1130).
origin("Vittorio_Veneto_10_577", "224[0]").
enter("Vittorio_Veneto_10_577", "224[0]", 0).
exit("Vittorio_Veneto_10_577", "224[0]", 140).
enter("Vittorio_Veneto_10_577", "224[1]", 140).
exit("Vittorio_Veneto_10_577", "224[1]", 200).
enter("Vittorio_Veneto_10_577", "[181|18]", 200).
exit("Vittorio_Veneto_10_577", "[181|18]", 275).
enter("Vittorio_Veneto_10_577", "69", 275).
exit("Vittorio_Veneto_10_577", "69", 370).
enter("Vittorio_Veneto_10_577", "161", 370).
exit("Vittorio_Veneto_10_577", "161", 395).
enter("Vittorio_Veneto_10_577", "122", 395).
exit("Vittorio_Veneto_10_577", "122", 495).
enter("Vittorio_Veneto_10_577", "1b", 495).
exit("Vittorio_Veneto_10_577", "1b", 555).
enter("Vittorio_Veneto_10_577", "1", 555).
exit("Vittorio_Veneto_10_577", "1", 590).
enter("Vittorio_Veneto_10_577", "204a[0]", 590).
exit("Vittorio_Veneto_10_577", "204a[0]", 710).
enter("Vittorio_Veneto_10_577", "204b[0]", 710).
exit("Vittorio_Veneto_10_577", "204b[0]", 715).
enter("Vittorio_Veneto_10_577", "204[1][0]", 715).
exit("Vittorio_Veneto_10_577", "204[1][0]", 750).
enter("Vittorio_Veneto_10_577", "204[1][1]", 750).
exit("Vittorio_Veneto_10_577", "204[1][1]", 785).
origin("Togliatti_10_525", "72[0]").
enter("Togliatti_10_525", "72[0]", 0).
exit("Togliatti_10_525", "72[0]", 110).
enter("Togliatti_10_525", "72[1]", 110).
exit("Togliatti_10_525", "72[1]", 150).
enter("Togliatti_10_525", "69", 150).
exit("Togliatti_10_525", "69", 245).
enter("Togliatti_10_525", "161", 245).
exit("Togliatti_10_525", "161", 295).
enter("Togliatti_10_525", "122", 295).
exit("Togliatti_10_525", "122", 395).
enter("Togliatti_10_525", "1b", 395).
exit("Togliatti_10_525", "1b", 455).
enter("Togliatti_10_525", "1", 455).
exit("Togliatti_10_525", "1", 490).
enter("Togliatti_10_525", "204a[0]", 490).
exit("Togliatti_10_525", "204a[0]", 610).
enter("Togliatti_10_525", "204b[0]", 610).
exit("Togliatti_10_525", "204b[0]", 615).
enter("Togliatti_10_525", "204[1][0]", 615).
exit("Togliatti_10_525", "204[1][0]", 650).
enter("Togliatti_10_525", "204[1][1]", 650).
exit("Togliatti_10_525", "204[1][1]", 705).
origin("XXI_Aprile_94_863", "122").
enter("XXI_Aprile_94_863", "122", 0).
exit("XXI_Aprile_94_863", "122", 100).
enter("XXI_Aprile_94_863", "1b", 100).
exit("XXI_Aprile_94_863", "1b", 160).
enter("XXI_Aprile_94_863", "1", 160).
exit("XXI_Aprile_94_863", "1", 195).
enter("XXI_Aprile_94_863", "204a[0]", 195).
exit("XXI_Aprile_94_863", "204a[0]", 315).
enter("XXI_Aprile_94_863", "204b[0]", 315).
exit("XXI_Aprile_94_863", "204b[0]", 320).
enter("XXI_Aprile_94_863", "54", 320).
exit("XXI_Aprile_94_863", "54", 345).
origin("Togliatti_10_467", "69").
enter("Togliatti_10_467", "69", 0).
exit("Togliatti_10_467", "69", 95).
enter("Togliatti_10_467", "161", 95).
exit("Togliatti_10_467", "161", 145).
enter("Togliatti_10_467", "122", 145).
exit("Togliatti_10_467", "122", 200).
enter("Togliatti_10_467", "1b", 200).
exit("Togliatti_10_467", "1b", 260).
enter("Togliatti_10_467", "1", 260).
exit("Togliatti_10_467", "1", 295).
enter("Togliatti_10_467", "204a[0]", 295).
exit("Togliatti_10_467", "204a[0]", 415).
enter("Togliatti_10_467", "204b[0]", 415).
exit("Togliatti_10_467", "204b[0]", 420).
enter("Togliatti_10_467", "204[1][0]", 420).
exit("Togliatti_10_467", "204[1][0]", 455).
enter("Togliatti_10_467", "204[1][1]", 455).
exit("Togliatti_10_467", "204[1][1]", 490).
origin("Togliatti_10_609", "194").
enter("Togliatti_10_609", "194", 0).
exit("Togliatti_10_609", "194", 15).
enter("Togliatti_10_609", "91", 15).
exit("Togliatti_10_609", "91", 20).
enter("Togliatti_10_609", "173", 20).
exit("Togliatti_10_609", "173", 85).
enter("Togliatti_10_609", "58[0]", 85).
exit("Togliatti_10_609", "58[0]", 90).
enter("Togliatti_10_609", "58[1]", 90).
exit("Togliatti_10_609", "58[1]", 135).
enter("Togliatti_10_609", "197", 135).
exit("Togliatti_10_609", "197", 170).
enter("Togliatti_10_609", "[109[0]|109[1][0]+20003|109[1][1]]", 170).
exit("Togliatti_10_609", "[109[0]|109[1][0]+20003|109[1][1]]", 185).
enter("Togliatti_10_609", "[116|46]", 185).
exit("Togliatti_10_609", "[116|46]", 240).
enter("Togliatti_10_609", "201", 240).
exit("Togliatti_10_609", "201", 340).
enter("Togliatti_10_609", "201c", 340).
exit("Togliatti_10_609", "201c", 445).
enter("Togliatti_10_609", "204a[0]", 445).
exit("Togliatti_10_609", "204a[0]", 1510).
enter("Togliatti_10_609", "204b[0]", 1510).
exit("Togliatti_10_609", "204b[0]", 1640).
enter("Togliatti_10_609", "204[1][0]", 1640).
exit("Togliatti_10_609", "204[1][0]", 1695).
enter("Togliatti_10_609", "204[1][1]", 1695).
exit("Togliatti_10_609", "204[1][1]", 1890).
origin("Togliatti_10_652", "197").
enter("Togliatti_10_652", "197", 0).
exit("Togliatti_10_652", "197", 20).
enter("Togliatti_10_652", "[109[0]|109[1][0]+20003|109[1][1]]", 20).
exit("Togliatti_10_652", "[109[0]|109[1][0]+20003|109[1][1]]", 30).
enter("Togliatti_10_652", "[116|46]", 30).
exit("Togliatti_10_652", "[116|46]", 210).
enter("Togliatti_10_652", "201", 210).
exit("Togliatti_10_652", "201", 270).
enter("Togliatti_10_652", "201c", 270).
exit("Togliatti_10_652", "201c", 385).
enter("Togliatti_10_652", "204a[0]", 385).
exit("Togliatti_10_652", "204a[0]", 1445).
enter("Togliatti_10_652", "204b[0]", 1445).
exit("Togliatti_10_652", "204b[0]", 1500).
enter("Togliatti_10_652", "204[1][0]", 1500).
exit("Togliatti_10_652", "204[1][0]", 1545).
enter("Togliatti_10_652", "204[1][1]", 1545).
exit("Togliatti_10_652", "204[1][1]", 1870).
origin("Vittorio_Veneto_10_510", "224[1]").
enter("Vittorio_Veneto_10_510", "224[1]", 0).
exit("Vittorio_Veneto_10_510", "224[1]", 60).
enter("Vittorio_Veneto_10_510", "[181|18]", 60).
exit("Vittorio_Veneto_10_510", "[181|18]", 135).
enter("Vittorio_Veneto_10_510", "69", 135).
exit("Vittorio_Veneto_10_510", "69", 230).
enter("Vittorio_Veneto_10_510", "161", 230).
exit("Vittorio_Veneto_10_510", "161", 255).
enter("Vittorio_Veneto_10_510", "122", 255).
exit("Vittorio_Veneto_10_510", "122", 355).
enter("Vittorio_Veneto_10_510", "1b", 355).
exit("Vittorio_Veneto_10_510", "1b", 415).
enter("Vittorio_Veneto_10_510", "1", 415).
exit("Vittorio_Veneto_10_510", "1", 450).
enter("Vittorio_Veneto_10_510", "204a[0]", 450).
exit("Vittorio_Veneto_10_510", "204a[0]", 570).
enter("Vittorio_Veneto_10_510", "204b[0]", 570).
exit("Vittorio_Veneto_10_510", "204b[0]", 575).
enter("Vittorio_Veneto_10_510", "204[1][0]", 575).
exit("Vittorio_Veneto_10_510", "204[1][0]", 610).
enter("Vittorio_Veneto_10_510", "204[1][1]", 610).
exit("Vittorio_Veneto_10_510", "204[1][1]", 645).
origin("Vittorio_Veneto_1_591", "224[0]").
enter("Vittorio_Veneto_1_591", "224[0]", 0).
exit("Vittorio_Veneto_1_591", "224[0]", 140).
enter("Vittorio_Veneto_1_591", "224[1]", 140).
exit("Vittorio_Veneto_1_591", "224[1]", 200).
enter("Vittorio_Veneto_1_591", "[181|18]", 200).
exit("Vittorio_Veneto_1_591", "[181|18]", 275).
enter("Vittorio_Veneto_1_591", "[17|71]", 275).
exit("Vittorio_Veneto_1_591", "[17|71]", 330).
enter("Vittorio_Veneto_1_591", "86", 330).
exit("Vittorio_Veneto_1_591", "86", 360).
origin("Costa_200_1291", "1b").
enter("Costa_200_1291", "1b", 0).
exit("Costa_200_1291", "1b", 60).
enter("Costa_200_1291", "1", 60).
exit("Costa_200_1291", "1", 95).
enter("Costa_200_1291", "204a[0]", 95).
exit("Costa_200_1291", "204a[0]", 215).
enter("Costa_200_1291", "204b[0]", 215).
exit("Costa_200_1291", "204b[0]", 220).
enter("Costa_200_1291", "204[1][0]", 220).
exit("Costa_200_1291", "204[1][0]", 255).
enter("Costa_200_1291", "204[1][1]", 255).
exit("Costa_200_1291", "204[1][1]", 290).
origin("Audinot_3_107", "57[0]").
enter("Audinot_3_107", "57[0]", 0).
exit("Audinot_3_107", "57[0]", 85).
enter("Audinot_3_107", "57[1]", 85).
exit("Audinot_3_107", "57[1]", 100).
enter("Audinot_3_107", "62", 100).
exit("Audinot_3_107", "62", 190).
enter("Audinot_3_107", "159", 190).
exit("Audinot_3_107", "159", 295).
enter("Audinot_3_107", "42", 295).
exit("Audinot_3_107", "42", 315).
enter("Audinot_3_107", "39", 315).
exit("Audinot_3_107", "39", 335).
enter("Audinot_3_107", "35", 335).
exit("Audinot_3_107", "35", 390).
enter("Audinot_3_107", "38", 390).
exit("Audinot_3_107", "38", 450).
enter("Audinot_3_107", "15", 450).
exit("Audinot_3_107", "15", 525).
enter("Audinot_3_107", "14", 525).
exit("Audinot_3_107", "14", 565).
origin("XXI_Aprile_94_787", "54").
enter("XXI_Aprile_94_787", "54", 0).
exit("XXI_Aprile_94_787", "54", 855).
origin("Audinot_10_99", "119").
enter("Audinot_10_99", "119", 0).
exit("Audinot_10_99", "119", 20).
enter("Audinot_10_99", "[116|46]", 20).
exit("Audinot_10_99", "[116|46]", 115).
enter("Audinot_10_99", "201", 115).
exit("Audinot_10_99", "201", 250).
enter("Audinot_10_99", "201c", 250).
exit("Audinot_10_99", "201c", 285).
enter("Audinot_10_99", "204a[0]", 285).
exit("Audinot_10_99", "204a[0]", 405).
enter("Audinot_10_99", "204b[0]", 405).
exit("Audinot_10_99", "204b[0]", 410).
enter("Audinot_10_99", "204[1][0]", 410).
exit("Audinot_10_99", "204[1][0]", 445).
enter("Audinot_10_99", "204[1][1]", 445).
exit("Audinot_10_99", "204[1][1]", 480).
origin("Audinot_9_109", "119").
enter("Audinot_9_109", "119", 0).
exit("Audinot_9_109", "119", 20).
enter("Audinot_9_109", "[116|46]", 20).
exit("Audinot_9_109", "[116|46]", 115).
enter("Audinot_9_109", "201", 115).
exit("Audinot_9_109", "201", 250).
enter("Audinot_9_109", "201c", 250).
exit("Audinot_9_109", "201c", 285).
enter("Audinot_9_109", "204a[0]", 285).
exit("Audinot_9_109", "204a[0]", 405).
enter("Audinot_9_109", "204b[0]", 405).
exit("Audinot_9_109", "204b[0]", 410).
enter("Audinot_9_109", "54", 410).
exit("Audinot_9_109", "54", 435).
origin("XXI_Aprile_7_830", "209").
enter("XXI_Aprile_7_830", "209", 0).
exit("XXI_Aprile_7_830", "209", 630).
origin("Togliatti_10_549", "161").
enter("Togliatti_10_549", "161", 0).
exit("Togliatti_10_549", "161", 90).
enter("Togliatti_10_549", "122", 90).
exit("Togliatti_10_549", "122", 120).
enter("Togliatti_10_549", "1b", 120).
exit("Togliatti_10_549", "1b", 175).
enter("Togliatti_10_549", "1", 175).
exit("Togliatti_10_549", "1", 445).
enter("Togliatti_10_549", "204a[0]", 445).
exit("Togliatti_10_549", "204a[0]", 630).
enter("Togliatti_10_549", "204b[0]", 630).
exit("Togliatti_10_549", "204b[0]", 700).
enter("Togliatti_10_549", "204[1][0]", 700).
exit("Togliatti_10_549", "204[1][0]", 1415).
enter("Togliatti_10_549", "204[1][1]", 1415).
exit("Togliatti_10_549", "204[1][1]", 1670).
origin("Vittorio_Veneto_10_494", "[181|18]").
enter("Vittorio_Veneto_10_494", "[181|18]", 0).
exit("Vittorio_Veneto_10_494", "[181|18]", 75).
enter("Vittorio_Veneto_10_494", "69", 75).
exit("Vittorio_Veneto_10_494", "69", 170).
enter("Vittorio_Veneto_10_494", "161", 170).
exit("Vittorio_Veneto_10_494", "161", 220).
enter("Vittorio_Veneto_10_494", "122", 220).
exit("Vittorio_Veneto_10_494", "122", 320).
enter("Vittorio_Veneto_10_494", "1b", 320).
exit("Vittorio_Veneto_10_494", "1b", 380).
enter("Vittorio_Veneto_10_494", "1", 380).
exit("Vittorio_Veneto_10_494", "1", 415).
enter("Vittorio_Veneto_10_494", "204a[0]", 415).
exit("Vittorio_Veneto_10_494", "204a[0]", 535).
enter("Vittorio_Veneto_10_494", "204b[0]", 535).
exit("Vittorio_Veneto_10_494", "204b[0]", 540).
enter("Vittorio_Veneto_10_494", "204[1][0]", 540).
exit("Vittorio_Veneto_10_494", "204[1][0]", 575).
enter("Vittorio_Veneto_10_494", "204[1][1]", 575).
exit("Vittorio_Veneto_10_494", "204[1][1]", 610).
origin("Pepoli_12_1877", "159").
enter("Pepoli_12_1877", "159", 0).
exit("Pepoli_12_1877", "159", 60).
enter("Pepoli_12_1877", "42", 60).
exit("Pepoli_12_1877", "42", 65).
enter("Pepoli_12_1877", "39", 65).
exit("Pepoli_12_1877", "39", 90).
enter("Pepoli_12_1877", "35", 90).
exit("Pepoli_12_1877", "35", 155).
enter("Pepoli_12_1877", "38", 155).
exit("Pepoli_12_1877", "38", 195).
enter("Pepoli_12_1877", "50", 195).
exit("Pepoli_12_1877", "50", 320).
enter("Pepoli_12_1877", "19", 320).
exit("Pepoli_12_1877", "19", 330).
enter("Pepoli_12_1877", "[22|59]", 330).
exit("Pepoli_12_1877", "[22|59]", 380).
enter("Pepoli_12_1877", "(53cd|53[0])", 380).
exit("Pepoli_12_1877", "(53cd|53[0])", 395).
enter("Pepoli_12_1877", "78[1][1]", 395).
exit("Pepoli_12_1877", "78[1][1]", 405).
enter("Pepoli_12_1877", "[189[0]|189[1][0]+20000|189[1][1]]", 405).
exit("Pepoli_12_1877", "[189[0]|189[1][0]+20000|189[1][1]]", 460).
enter("Pepoli_12_1877", "191", 460).
exit("Pepoli_12_1877", "191", 505).
enter("Pepoli_12_1877", "[17|71]", 505).
exit("Pepoli_12_1877", "[17|71]", 570).
enter("Pepoli_12_1877", "84", 570).
exit("Pepoli_12_1877", "84", 595).
enter("Pepoli_12_1877", "180", 595).
exit("Pepoli_12_1877", "180", 655).
origin("Togliatti_9_527", "161").
enter("Togliatti_9_527", "161", 0).
exit("Togliatti_9_527", "161", 20).
enter("Togliatti_9_527", "122", 20).
exit("Togliatti_9_527", "122", 80).
enter("Togliatti_9_527", "1b", 80).
exit("Togliatti_9_527", "1b", 295).
enter("Togliatti_9_527", "1", 295).
exit("Togliatti_9_527", "1", 520).
enter("Togliatti_9_527", "204a[0]", 520).
exit("Togliatti_9_527", "204a[0]", 620).
enter("Togliatti_9_527", "204b[0]", 620).
exit("Togliatti_9_527", "204b[0]", 695).
enter("Togliatti_9_527", "54", 695).
exit("Togliatti_9_527", "54", 1770).
origin("Costa_200_1357", "161").
enter("Costa_200_1357", "161", 0).
exit("Costa_200_1357", "161", 50).
enter("Costa_200_1357", "122", 50).
exit("Costa_200_1357", "122", 150).
enter("Costa_200_1357", "1b", 150).
exit("Costa_200_1357", "1b", 210).
enter("Costa_200_1357", "1", 210).
exit("Costa_200_1357", "1", 245).
enter("Costa_200_1357", "204a[0]", 245).
exit("Costa_200_1357", "204a[0]", 365).
enter("Costa_200_1357", "204b[0]", 365).
exit("Costa_200_1357", "204b[0]", 370).
enter("Costa_200_1357", "204[1][0]", 370).
exit("Costa_200_1357", "204[1][0]", 405).
enter("Costa_200_1357", "204[1][1]", 405).
exit("Costa_200_1357", "204[1][1]", 440).
origin("Audinot_12_149", "131").
enter("Audinot_12_149", "131", 0).
exit("Audinot_12_149", "131", 50).
enter("Audinot_12_149", "65", 50).
exit("Audinot_12_149", "65", 95).
enter("Audinot_12_149", "57[0]", 95).
exit("Audinot_12_149", "57[0]", 160).
enter("Audinot_12_149", "57[1]", 160).
exit("Audinot_12_149", "57[1]", 175).
enter("Audinot_12_149", "62", 175).
exit("Audinot_12_149", "62", 235).
enter("Audinot_12_149", "159", 235).
exit("Audinot_12_149", "159", 290).
enter("Audinot_12_149", "42", 290).
exit("Audinot_12_149", "42", 300).
enter("Audinot_12_149", "39", 300).
exit("Audinot_12_149", "39", 315).
enter("Audinot_12_149", "35", 315).
exit("Audinot_12_149", "35", 385).
enter("Audinot_12_149", "38", 385).
exit("Audinot_12_149", "38", 425).
enter("Audinot_12_149", "50", 425).
exit("Audinot_12_149", "50", 455).
enter("Audinot_12_149", "19", 455).
exit("Audinot_12_149", "19", 530).
enter("Audinot_12_149", "[22|59]", 530).
exit("Audinot_12_149", "[22|59]", 550).
enter("Audinot_12_149", "(53cd|53[0]|53[1][0])", 550).
exit("Audinot_12_149", "(53cd|53[0]|53[1][0])", 580).
enter("Audinot_12_149", "79", 580).
exit("Audinot_12_149", "79", 675).
enter("Audinot_12_149", "[68|11]", 675).
exit("Audinot_12_149", "[68|11]", 720).
enter("Audinot_12_149", "84", 720).
exit("Audinot_12_149", "84", 745).
enter("Audinot_12_149", "180", 745).
exit("Audinot_12_149", "180", 940).
origin("Costa_200_543", "122").
enter("Costa_200_543", "122", 0).
exit("Costa_200_543", "122", 55).
enter("Costa_200_543", "1b", 55).
exit("Costa_200_543", "1b", 115).
enter("Costa_200_543", "1", 115).
exit("Costa_200_543", "1", 150).
enter("Costa_200_543", "204a[0]", 150).
exit("Costa_200_543", "204a[0]", 270).
enter("Costa_200_543", "204b[0]", 270).
exit("Costa_200_543", "204b[0]", 275).
enter("Costa_200_543", "204[1][0]", 275).
exit("Costa_200_543", "204[1][0]", 310).
enter("Costa_200_543", "204[1][1]", 310).
exit("Costa_200_543", "204[1][1]", 345).
origin("Vittorio_Veneto_1_532", "224[1]").
enter("Vittorio_Veneto_1_532", "224[1]", 0).
exit("Vittorio_Veneto_1_532", "224[1]", 60).
enter("Vittorio_Veneto_1_532", "[181|18]", 60).
exit("Vittorio_Veneto_1_532", "[181|18]", 135).
enter("Vittorio_Veneto_1_532", "[17|71]", 135).
exit("Vittorio_Veneto_1_532", "[17|71]", 190).
enter("Vittorio_Veneto_1_532", "86", 190).
exit("Vittorio_Veneto_1_532", "86", 220).
origin("Vittorio_Veneto_1_531", "224[1]").
enter("Vittorio_Veneto_1_531", "224[1]", 0).
exit("Vittorio_Veneto_1_531", "224[1]", 60).
enter("Vittorio_Veneto_1_531", "[181|18]", 60).
exit("Vittorio_Veneto_1_531", "[181|18]", 135).
enter("Vittorio_Veneto_1_531", "[17|71]", 135).
exit("Vittorio_Veneto_1_531", "[17|71]", 215).
enter("Vittorio_Veneto_1_531", "86", 215).
exit("Vittorio_Veneto_1_531", "86", 245).
origin("Vittorio_Veneto_1_584", "224[0]").
enter("Vittorio_Veneto_1_584", "224[0]", 0).
exit("Vittorio_Veneto_1_584", "224[0]", 140).
enter("Vittorio_Veneto_1_584", "224[1]", 140).
exit("Vittorio_Veneto_1_584", "224[1]", 200).
enter("Vittorio_Veneto_1_584", "[181|18]", 200).
exit("Vittorio_Veneto_1_584", "[181|18]", 275).
enter("Vittorio_Veneto_1_584", "[17|71]", 275).
exit("Vittorio_Veneto_1_584", "[17|71]", 330).
enter("Vittorio_Veneto_1_584", "86", 330).
exit("Vittorio_Veneto_1_584", "86", 360).
origin("XXI_Aprile_93_950", "161").
enter("XXI_Aprile_93_950", "161", 0).
exit("XXI_Aprile_93_950", "161", 50).
enter("XXI_Aprile_93_950", "122", 50).
exit("XXI_Aprile_93_950", "122", 150).
enter("XXI_Aprile_93_950", "1b", 150).
exit("XXI_Aprile_93_950", "1b", 210).
enter("XXI_Aprile_93_950", "1", 210).
exit("XXI_Aprile_93_950", "1", 245).
enter("XXI_Aprile_93_950", "204a[0]", 245).
exit("XXI_Aprile_93_950", "204a[0]", 365).
enter("XXI_Aprile_93_950", "204b[0]", 365).
exit("XXI_Aprile_93_950", "204b[0]", 370).
enter("XXI_Aprile_93_950", "54", 370).
exit("XXI_Aprile_93_950", "54", 395).
origin("Togliatti_10_601", "85").
enter("Togliatti_10_601", "85", 0).
exit("Togliatti_10_601", "85", 60).
enter("Togliatti_10_601", "72[0]", 60).
exit("Togliatti_10_601", "72[0]", 685).
enter("Togliatti_10_601", "72[1]", 685).
exit("Togliatti_10_601", "72[1]", 720).
enter("Togliatti_10_601", "69", 720).
exit("Togliatti_10_601", "69", 770).
enter("Togliatti_10_601", "161", 770).
exit("Togliatti_10_601", "161", 805).
enter("Togliatti_10_601", "122", 805).
exit("Togliatti_10_601", "122", 1100).
enter("Togliatti_10_601", "1b", 1100).
exit("Togliatti_10_601", "1b", 1950).
enter("Togliatti_10_601", "1", 1950).
exit("Togliatti_10_601", "1", 2000).
enter("Togliatti_10_601", "204a[0]", 2000).
exit("Togliatti_10_601", "204a[0]", 2190).
enter("Togliatti_10_601", "204b[0]", 2190).
exit("Togliatti_10_601", "204b[0]", 2300).
enter("Togliatti_10_601", "204[1][0]", 2300).
exit("Togliatti_10_601", "204[1][0]", 2340).
enter("Togliatti_10_601", "204[1][1]", 2340).
exit("Togliatti_10_601", "204[1][1]", 2575).
origin("Vittorio_Veneto_10_387", "122").
enter("Vittorio_Veneto_10_387", "122", 0).
exit("Vittorio_Veneto_10_387", "122", 55).
enter("Vittorio_Veneto_10_387", "1b", 55).
exit("Vittorio_Veneto_10_387", "1b", 115).
enter("Vittorio_Veneto_10_387", "1", 115).
exit("Vittorio_Veneto_10_387", "1", 150).
enter("Vittorio_Veneto_10_387", "204a[0]", 150).
exit("Vittorio_Veneto_10_387", "204a[0]", 270).
enter("Vittorio_Veneto_10_387", "204b[0]", 270).
exit("Vittorio_Veneto_10_387", "204b[0]", 275).
enter("Vittorio_Veneto_10_387", "204[1][0]", 275).
exit("Vittorio_Veneto_10_387", "204[1][0]", 310).
enter("Vittorio_Veneto_10_387", "204[1][1]", 310).
exit("Vittorio_Veneto_10_387", "204[1][1]", 345).
origin("Costa_50_1318", "120").
enter("Costa_50_1318", "120", 0).
exit("Costa_50_1318", "120", 75).
enter("Costa_50_1318", "65", 75).
exit("Costa_50_1318", "65", 120).
enter("Costa_50_1318", "[200|60]", 120).
exit("Costa_50_1318", "[200|60]", 255).
origin("Audinot_3_144", "131").
enter("Audinot_3_144", "131", 0).
exit("Audinot_3_144", "131", 30).
enter("Audinot_3_144", "65", 30).
exit("Audinot_3_144", "65", 40).
enter("Audinot_3_144", "57[0]", 40).
exit("Audinot_3_144", "57[0]", 100).
enter("Audinot_3_144", "57[1]", 100).
exit("Audinot_3_144", "57[1]", 105).
enter("Audinot_3_144", "62", 105).
exit("Audinot_3_144", "62", 160).
enter("Audinot_3_144", "159", 160).
exit("Audinot_3_144", "159", 250).
enter("Audinot_3_144", "42", 250).
exit("Audinot_3_144", "42", 265).
enter("Audinot_3_144", "39", 265).
exit("Audinot_3_144", "39", 275).
enter("Audinot_3_144", "35", 275).
exit("Audinot_3_144", "35", 465).
enter("Audinot_3_144", "38", 465).
exit("Audinot_3_144", "38", 530).
enter("Audinot_3_144", "15", 530).
exit("Audinot_3_144", "15", 570).
enter("Audinot_3_144", "14", 570).
exit("Audinot_3_144", "14", 1010).
origin("Pepoli_3_1740", "15").
enter("Pepoli_3_1740", "15", 0).
exit("Pepoli_3_1740", "15", 75).
enter("Pepoli_3_1740", "14", 75).
exit("Pepoli_3_1740", "14", 115).
origin("Vittorio_Veneto_10_444", "161").
enter("Vittorio_Veneto_10_444", "161", 0).
exit("Vittorio_Veneto_10_444", "161", 50).
enter("Vittorio_Veneto_10_444", "122", 50).
exit("Vittorio_Veneto_10_444", "122", 150).
enter("Vittorio_Veneto_10_444", "1b", 150).
exit("Vittorio_Veneto_10_444", "1b", 210).
enter("Vittorio_Veneto_10_444", "1", 210).
exit("Vittorio_Veneto_10_444", "1", 245).
enter("Vittorio_Veneto_10_444", "204a[0]", 245).
exit("Vittorio_Veneto_10_444", "204a[0]", 365).
enter("Vittorio_Veneto_10_444", "204b[0]", 365).
exit("Vittorio_Veneto_10_444", "204b[0]", 370).
enter("Vittorio_Veneto_10_444", "204[1][0]", 370).
exit("Vittorio_Veneto_10_444", "204[1][0]", 405).
enter("Vittorio_Veneto_10_444", "204[1][1]", 405).
exit("Vittorio_Veneto_10_444", "204[1][1]", 440).
origin("Togliatti_3_2477", "62").
enter("Togliatti_3_2477", "62", 0).
exit("Togliatti_3_2477", "62", 105).
enter("Togliatti_3_2477", "159", 105).
exit("Togliatti_3_2477", "159", 180).
enter("Togliatti_3_2477", "42", 180).
exit("Togliatti_3_2477", "42", 190).
enter("Togliatti_3_2477", "39", 190).
exit("Togliatti_3_2477", "39", 220).
enter("Togliatti_3_2477", "35", 220).
exit("Togliatti_3_2477", "35", 280).
enter("Togliatti_3_2477", "38", 280).
exit("Togliatti_3_2477", "38", 375).
enter("Togliatti_3_2477", "15", 375).
exit("Togliatti_3_2477", "15", 620).
enter("Togliatti_3_2477", "14", 620).
exit("Togliatti_3_2477", "14", 665).
origin("Audinot_7_116", "209").
enter("Audinot_7_116", "209", 0).
exit("Audinot_7_116", "209", 50).
origin("Vittorio_Veneto_2_563", "224[0]").
enter("Vittorio_Veneto_2_563", "224[0]", 0).
exit("Vittorio_Veneto_2_563", "224[0]", 140).
enter("Vittorio_Veneto_2_563", "224[1]", 140).
exit("Vittorio_Veneto_2_563", "224[1]", 200).
enter("Vittorio_Veneto_2_563", "[181|18]", 200).
exit("Vittorio_Veneto_2_563", "[181|18]", 275).
enter("Vittorio_Veneto_2_563", "[17|71]", 275).
exit("Vittorio_Veneto_2_563", "[17|71]", 330).
enter("Vittorio_Veneto_2_563", "67", 330).
exit("Vittorio_Veneto_2_563", "67", 345).
enter("Vittorio_Veneto_2_563", "[80|127]", 345).
exit("Vittorio_Veneto_2_563", "[80|127]", 380).
enter("Vittorio_Veneto_2_563", "(77[1][0])", 380).
exit("Vittorio_Veneto_2_563", "(77[1][0])", 400).
enter("Vittorio_Veneto_2_563", "77[1][1]", 400).
exit("Vittorio_Veneto_2_563", "77[1][1]", 440).
origin("Togliatti_10_531", "72[0]").
enter("Togliatti_10_531", "72[0]", 0).
exit("Togliatti_10_531", "72[0]", 75).
enter("Togliatti_10_531", "72[1]", 75).
exit("Togliatti_10_531", "72[1]", 115).
enter("Togliatti_10_531", "69", 115).
exit("Togliatti_10_531", "69", 210).
enter("Togliatti_10_531", "161", 210).
exit("Togliatti_10_531", "161", 235).
enter("Togliatti_10_531", "122", 235).
exit("Togliatti_10_531", "122", 335).
enter("Togliatti_10_531", "1b", 335).
exit("Togliatti_10_531", "1b", 395).
enter("Togliatti_10_531", "1", 395).
exit("Togliatti_10_531", "1", 430).
enter("Togliatti_10_531", "204a[0]", 430).
exit("Togliatti_10_531", "204a[0]", 550).
enter("Togliatti_10_531", "204b[0]", 550).
exit("Togliatti_10_531", "204b[0]", 555).
enter("Togliatti_10_531", "204[1][0]", 555).
exit("Togliatti_10_531", "204[1][0]", 590).
enter("Togliatti_10_531", "204[1][1]", 590).
exit("Togliatti_10_531", "204[1][1]", 625).
origin("Costa_200_762", "204a[0]").
enter("Costa_200_762", "204a[0]", 0).
exit("Costa_200_762", "204a[0]", 120).
enter("Costa_200_762", "204b[0]", 120).
exit("Costa_200_762", "204b[0]", 125).
enter("Costa_200_762", "204[1][0]", 125).
exit("Costa_200_762", "204[1][0]", 160).
enter("Costa_200_762", "204[1][1]", 160).
exit("Costa_200_762", "204[1][1]", 195).
origin("Pepoli_12_1752", "50").
enter("Pepoli_12_1752", "50", 0).
exit("Pepoli_12_1752", "50", 60).
enter("Pepoli_12_1752", "19", 60).
exit("Pepoli_12_1752", "19", 95).
enter("Pepoli_12_1752", "[22|59]", 95).
exit("Pepoli_12_1752", "[22|59]", 165).
enter("Pepoli_12_1752", "(53cd|53[0]|53[1][0])", 165).
exit("Pepoli_12_1752", "(53cd|53[0]|53[1][0])", 185).
enter("Pepoli_12_1752", "79", 185).
exit("Pepoli_12_1752", "79", 255).
enter("Pepoli_12_1752", "[68|11]", 255).
exit("Pepoli_12_1752", "[68|11]", 310).
enter("Pepoli_12_1752", "84", 310).
exit("Pepoli_12_1752", "84", 330).
enter("Pepoli_12_1752", "180", 330).
exit("Pepoli_12_1752", "180", 425).
origin("Togliatti_10_584", "85").
enter("Togliatti_10_584", "85", 0).
exit("Togliatti_10_584", "85", 60).
enter("Togliatti_10_584", "72[0]", 60).
exit("Togliatti_10_584", "72[0]", 310).
enter("Togliatti_10_584", "72[1]", 310).
exit("Togliatti_10_584", "72[1]", 390).
enter("Togliatti_10_584", "69", 390).
exit("Togliatti_10_584", "69", 785).
enter("Togliatti_10_584", "161", 785).
exit("Togliatti_10_584", "161", 805).
enter("Togliatti_10_584", "122", 805).
exit("Togliatti_10_584", "122", 1440).
enter("Togliatti_10_584", "1b", 1440).
exit("Togliatti_10_584", "1b", 2010).
enter("Togliatti_10_584", "1", 2010).
exit("Togliatti_10_584", "1", 2285).
enter("Togliatti_10_584", "204a[0]", 2285).
exit("Togliatti_10_584", "204a[0]", 2415).
enter("Togliatti_10_584", "204b[0]", 2415).
exit("Togliatti_10_584", "204b[0]", 2450).
enter("Togliatti_10_584", "204[1][0]", 2450).
exit("Togliatti_10_584", "204[1][0]", 2515).
enter("Togliatti_10_584", "204[1][1]", 2515).
exit("Togliatti_10_584", "204[1][1]", 2740).
origin("XXI_Aprile_94_880", "161").
enter("XXI_Aprile_94_880", "161", 0).
exit("XXI_Aprile_94_880", "161", 50).
enter("XXI_Aprile_94_880", "122", 50).
exit("XXI_Aprile_94_880", "122", 150).
enter("XXI_Aprile_94_880", "1b", 150).
exit("XXI_Aprile_94_880", "1b", 210).
enter("XXI_Aprile_94_880", "1", 210).
exit("XXI_Aprile_94_880", "1", 245).
enter("XXI_Aprile_94_880", "204a[0]", 245).
exit("XXI_Aprile_94_880", "204a[0]", 365).
enter("XXI_Aprile_94_880", "204b[0]", 365).
exit("XXI_Aprile_94_880", "204b[0]", 370).
enter("XXI_Aprile_94_880", "54", 370).
exit("XXI_Aprile_94_880", "54", 395).
origin("Costa_70_1077", "209").
enter("Costa_70_1077", "209", 0).
exit("Costa_70_1077", "209", 190).
origin("Togliatti_3_2110", "62").
enter("Togliatti_3_2110", "62", 0).
exit("Togliatti_3_2110", "62", 90).
enter("Togliatti_3_2110", "159", 90).
exit("Togliatti_3_2110", "159", 120).
enter("Togliatti_3_2110", "42", 120).
exit("Togliatti_3_2110", "42", 145).
enter("Togliatti_3_2110", "39", 145).
exit("Togliatti_3_2110", "39", 210).
enter("Togliatti_3_2110", "35", 210).
exit("Togliatti_3_2110", "35", 250).
enter("Togliatti_3_2110", "38", 250).
exit("Togliatti_3_2110", "38", 295).
enter("Togliatti_3_2110", "33", 295).
exit("Togliatti_3_2110", "33", 335).
enter("Togliatti_3_2110", "10", 335).
exit("Togliatti_3_2110", "10", 405).
origin("Costa_91_1213", "122").
enter("Costa_91_1213", "122", 0).
exit("Costa_91_1213", "122", 100).
enter("Costa_91_1213", "1b", 100).
exit("Costa_91_1213", "1b", 160).
enter("Costa_91_1213", "1", 160).
exit("Costa_91_1213", "1", 195).
enter("Costa_91_1213", "204a[0]", 195).
exit("Costa_91_1213", "204a[0]", 315).
enter("Costa_91_1213", "204b[0]", 315).
exit("Costa_91_1213", "204b[0]", 320).
enter("Costa_91_1213", "54", 320).
exit("Costa_91_1213", "54", 345).
origin("Audinot_12_104", "57[0]").
enter("Audinot_12_104", "57[0]", 0).
exit("Audinot_12_104", "57[0]", 85).
enter("Audinot_12_104", "57[1]", 85).
exit("Audinot_12_104", "57[1]", 100).
enter("Audinot_12_104", "62", 100).
exit("Audinot_12_104", "62", 190).
enter("Audinot_12_104", "159", 190).
exit("Audinot_12_104", "159", 295).
enter("Audinot_12_104", "42", 295).
exit("Audinot_12_104", "42", 315).
enter("Audinot_12_104", "39", 315).
exit("Audinot_12_104", "39", 335).
enter("Audinot_12_104", "35", 335).
exit("Audinot_12_104", "35", 390).
enter("Audinot_12_104", "38", 390).
exit("Audinot_12_104", "38", 450).
enter("Audinot_12_104", "50", 450).
exit("Audinot_12_104", "50", 510).
enter("Audinot_12_104", "19", 510).
exit("Audinot_12_104", "19", 545).
enter("Audinot_12_104", "[22|59]", 545).
exit("Audinot_12_104", "[22|59]", 615).
enter("Audinot_12_104", "(53cd|53[0]|53[1][0])", 615).
exit("Audinot_12_104", "(53cd|53[0]|53[1][0])", 635).
enter("Audinot_12_104", "79", 635).
exit("Audinot_12_104", "79", 705).
enter("Audinot_12_104", "[68|11]", 705).
exit("Audinot_12_104", "[68|11]", 760).
enter("Audinot_12_104", "84", 760).
exit("Audinot_12_104", "84", 795).
enter("Audinot_12_104", "180", 795).
exit("Audinot_12_104", "180", 890).
origin("Togliatti_10_310", "122").
enter("Togliatti_10_310", "122", 0).
exit("Togliatti_10_310", "122", 20).
enter("Togliatti_10_310", "1b", 20).
exit("Togliatti_10_310", "1b", 730).
enter("Togliatti_10_310", "1", 730).
exit("Togliatti_10_310", "1", 1115).
enter("Togliatti_10_310", "204a[0]", 1115).
exit("Togliatti_10_310", "204a[0]", 1180).
enter("Togliatti_10_310", "204b[0]", 1180).
exit("Togliatti_10_310", "204b[0]", 1230).
enter("Togliatti_10_310", "204[1][0]", 1230).
exit("Togliatti_10_310", "204[1][0]", 1340).
enter("Togliatti_10_310", "204[1][1]", 1340).
exit("Togliatti_10_310", "204[1][1]", 1745).
origin("Togliatti_9_678", "69").
enter("Togliatti_9_678", "69", 0).
exit("Togliatti_9_678", "69", 65).
enter("Togliatti_9_678", "161", 65).
exit("Togliatti_9_678", "161", 90).
enter("Togliatti_9_678", "122", 90).
exit("Togliatti_9_678", "122", 140).
enter("Togliatti_9_678", "1b", 140).
exit("Togliatti_9_678", "1b", 195).
enter("Togliatti_9_678", "1", 195).
exit("Togliatti_9_678", "1", 380).
enter("Togliatti_9_678", "204a[0]", 380).
exit("Togliatti_9_678", "204a[0]", 1780).
enter("Togliatti_9_678", "204b[0]", 1780).
exit("Togliatti_9_678", "204b[0]", 1920).
enter("Togliatti_9_678", "54", 1920).
exit("Togliatti_9_678", "54", 2325).
origin("Togliatti_10_435", "161").
enter("Togliatti_10_435", "161", 0).
exit("Togliatti_10_435", "161", 25).
enter("Togliatti_10_435", "122", 25).
exit("Togliatti_10_435", "122", 80).
enter("Togliatti_10_435", "1b", 80).
exit("Togliatti_10_435", "1b", 140).
enter("Togliatti_10_435", "1", 140).
exit("Togliatti_10_435", "1", 175).
enter("Togliatti_10_435", "204a[0]", 175).
exit("Togliatti_10_435", "204a[0]", 295).
enter("Togliatti_10_435", "204b[0]", 295).
exit("Togliatti_10_435", "204b[0]", 300).
enter("Togliatti_10_435", "204[1][0]", 300).
exit("Togliatti_10_435", "204[1][0]", 335).
enter("Togliatti_10_435", "204[1][1]", 335).
exit("Togliatti_10_435", "204[1][1]", 370).
origin("Togliatti_3_1374", "194").
enter("Togliatti_3_1374", "194", 0).
exit("Togliatti_3_1374", "194", 280).
enter("Togliatti_3_1374", "91", 280).
exit("Togliatti_3_1374", "91", 290).
enter("Togliatti_3_1374", "173", 290).
exit("Togliatti_3_1374", "173", 315).
enter("Togliatti_3_1374", "62", 315).
exit("Togliatti_3_1374", "62", 470).
enter("Togliatti_3_1374", "159", 470).
exit("Togliatti_3_1374", "159", 580).
enter("Togliatti_3_1374", "42", 580).
exit("Togliatti_3_1374", "42", 600).
enter("Togliatti_3_1374", "39", 600).
exit("Togliatti_3_1374", "39", 620).
enter("Togliatti_3_1374", "35", 620).
exit("Togliatti_3_1374", "35", 660).
enter("Togliatti_3_1374", "38", 660).
exit("Togliatti_3_1374", "38", 675).
enter("Togliatti_3_1374", "33", 675).
exit("Togliatti_3_1374", "33", 735).
enter("Togliatti_3_1374", "10", 735).
exit("Togliatti_3_1374", "10", 1205).
origin("Pepoli_2_2001", "159").
enter("Pepoli_2_2001", "159", 0).
exit("Pepoli_2_2001", "159", 105).
enter("Pepoli_2_2001", "42", 105).
exit("Pepoli_2_2001", "42", 125).
enter("Pepoli_2_2001", "39", 125).
exit("Pepoli_2_2001", "39", 145).
enter("Pepoli_2_2001", "35", 145).
exit("Pepoli_2_2001", "35", 200).
enter("Pepoli_2_2001", "38", 200).
exit("Pepoli_2_2001", "38", 260).
enter("Pepoli_2_2001", "50", 260).
exit("Pepoli_2_2001", "50", 320).
enter("Pepoli_2_2001", "19", 320).
exit("Pepoli_2_2001", "19", 355).
enter("Pepoli_2_2001", "[22|59]", 355).
exit("Pepoli_2_2001", "[22|59]", 425).
enter("Pepoli_2_2001", "(53cd|53[0]|53[1][0]|53[1][1][0]|77[1][0])", 425).
exit("Pepoli_2_2001", "(53cd|53[0]|53[1][0]|53[1][1][0]|77[1][0])", 435).
enter("Pepoli_2_2001", "77[1][1]", 435).
exit("Pepoli_2_2001", "77[1][1]", 495).
origin("Vittorio_Veneto_2_587", "224[0]").
enter("Vittorio_Veneto_2_587", "224[0]", 0).
exit("Vittorio_Veneto_2_587", "224[0]", 140).
enter("Vittorio_Veneto_2_587", "224[1]", 140).
exit("Vittorio_Veneto_2_587", "224[1]", 200).
enter("Vittorio_Veneto_2_587", "[181|18]", 200).
exit("Vittorio_Veneto_2_587", "[181|18]", 275).
enter("Vittorio_Veneto_2_587", "[17|71]", 275).
exit("Vittorio_Veneto_2_587", "[17|71]", 330).
enter("Vittorio_Veneto_2_587", "67", 330).
exit("Vittorio_Veneto_2_587", "67", 345).
enter("Vittorio_Veneto_2_587", "[80|127]", 345).
exit("Vittorio_Veneto_2_587", "[80|127]", 365).
enter("Vittorio_Veneto_2_587", "(77[1][0])", 365).
exit("Vittorio_Veneto_2_587", "(77[1][0])", 385).
enter("Vittorio_Veneto_2_587", "77[1][1]", 385).
exit("Vittorio_Veneto_2_587", "77[1][1]", 425).
origin("Vittorio_Veneto_1_551", "224[0]").
enter("Vittorio_Veneto_1_551", "224[0]", 0).
exit("Vittorio_Veneto_1_551", "224[0]", 80).
enter("Vittorio_Veneto_1_551", "224[1]", 80).
exit("Vittorio_Veneto_1_551", "224[1]", 145).
enter("Vittorio_Veneto_1_551", "[181|18]", 145).
exit("Vittorio_Veneto_1_551", "[181|18]", 185).
enter("Vittorio_Veneto_1_551", "[17|71]", 185).
exit("Vittorio_Veneto_1_551", "[17|71]", 250).
enter("Vittorio_Veneto_1_551", "86", 250).
exit("Vittorio_Veneto_1_551", "86", 300).
origin("Audinot_3_148", "131").
enter("Audinot_3_148", "131", 0).
exit("Audinot_3_148", "131", 30).
enter("Audinot_3_148", "65", 30).
exit("Audinot_3_148", "65", 85).
enter("Audinot_3_148", "57[0]", 85).
exit("Audinot_3_148", "57[0]", 110).
enter("Audinot_3_148", "57[1]", 110).
exit("Audinot_3_148", "57[1]", 120).
enter("Audinot_3_148", "62", 120).
exit("Audinot_3_148", "62", 185).
enter("Audinot_3_148", "159", 185).
exit("Audinot_3_148", "159", 380).
enter("Audinot_3_148", "42", 380).
exit("Audinot_3_148", "42", 395).
enter("Audinot_3_148", "39", 395).
exit("Audinot_3_148", "39", 410).
enter("Audinot_3_148", "35", 410).
exit("Audinot_3_148", "35", 470).
enter("Audinot_3_148", "38", 470).
exit("Audinot_3_148", "38", 500).
enter("Audinot_3_148", "33", 500).
exit("Audinot_3_148", "33", 535).
enter("Audinot_3_148", "10", 535).
exit("Audinot_3_148", "10", 1035).
origin("Audinot_3_130", "131").
enter("Audinot_3_130", "131", 0).
exit("Audinot_3_130", "131", 150).
enter("Audinot_3_130", "65", 150).
exit("Audinot_3_130", "65", 195).
enter("Audinot_3_130", "57[0]", 195).
exit("Audinot_3_130", "57[0]", 280).
enter("Audinot_3_130", "57[1]", 280).
exit("Audinot_3_130", "57[1]", 295).
enter("Audinot_3_130", "62", 295).
exit("Audinot_3_130", "62", 385).
enter("Audinot_3_130", "159", 385).
exit("Audinot_3_130", "159", 490).
enter("Audinot_3_130", "42", 490).
exit("Audinot_3_130", "42", 510).
enter("Audinot_3_130", "39", 510).
exit("Audinot_3_130", "39", 530).
enter("Audinot_3_130", "35", 530).
exit("Audinot_3_130", "35", 585).
enter("Audinot_3_130", "38", 585).
exit("Audinot_3_130", "38", 645).
enter("Audinot_3_130", "15", 645).
exit("Audinot_3_130", "15", 720).
enter("Audinot_3_130", "14", 720).
exit("Audinot_3_130", "14", 760).
origin("Pepoli_3_1727", "15").
enter("Pepoli_3_1727", "15", 0).
exit("Pepoli_3_1727", "15", 75).
enter("Pepoli_3_1727", "14", 75).
exit("Pepoli_3_1727", "14", 115).
origin("Audinot_9_122", "119").
enter("Audinot_9_122", "119", 0).
exit("Audinot_9_122", "119", 40).
enter("Audinot_9_122", "[116|46]", 40).
exit("Audinot_9_122", "[116|46]", 105).
enter("Audinot_9_122", "201", 105).
exit("Audinot_9_122", "201", 240).
enter("Audinot_9_122", "201c", 240).
exit("Audinot_9_122", "201c", 275).
enter("Audinot_9_122", "204a[0]", 275).
exit("Audinot_9_122", "204a[0]", 395).
enter("Audinot_9_122", "204b[0]", 395).
exit("Audinot_9_122", "204b[0]", 400).
enter("Audinot_9_122", "54", 400).
exit("Audinot_9_122", "54", 425).
origin("XXI_Aprile_102_869", "204a[0]").
enter("XXI_Aprile_102_869", "204a[0]", 0).
exit("XXI_Aprile_102_869", "204a[0]", 840).
enter("XXI_Aprile_102_869", "204b[0]", 840).
exit("XXI_Aprile_102_869", "204b[0]", 855).
enter("XXI_Aprile_102_869", "204[1][0]", 855).
exit("XXI_Aprile_102_869", "204[1][0]", 895).
enter("XXI_Aprile_102_869", "204[1][1]", 895).
exit("XXI_Aprile_102_869", "204[1][1]", 935).
origin("Togliatti_10_594", "85").
enter("Togliatti_10_594", "85", 0).
exit("Togliatti_10_594", "85", 60).
enter("Togliatti_10_594", "72[0]", 60).
exit("Togliatti_10_594", "72[0]", 230).
enter("Togliatti_10_594", "72[1]", 230).
exit("Togliatti_10_594", "72[1]", 330).
enter("Togliatti_10_594", "69", 330).
exit("Togliatti_10_594", "69", 715).
enter("Togliatti_10_594", "161", 715).
exit("Togliatti_10_594", "161", 740).
enter("Togliatti_10_594", "122", 740).
exit("Togliatti_10_594", "122", 1435).
enter("Togliatti_10_594", "1b", 1435).
exit("Togliatti_10_594", "1b", 2250).
enter("Togliatti_10_594", "1", 2250).
exit("Togliatti_10_594", "1", 2285).
enter("Togliatti_10_594", "204a[0]", 2285).
exit("Togliatti_10_594", "204a[0]", 2490).
enter("Togliatti_10_594", "204b[0]", 2490).
exit("Togliatti_10_594", "204b[0]", 2520).
enter("Togliatti_10_594", "204[1][0]", 2520).
exit("Togliatti_10_594", "204[1][0]", 2555).
enter("Togliatti_10_594", "204[1][1]", 2555).
exit("Togliatti_10_594", "204[1][1]", 2750).
origin("Vittorio_Veneto_1_509", "224[1]").
enter("Vittorio_Veneto_1_509", "224[1]", 0).
exit("Vittorio_Veneto_1_509", "224[1]", 60).
enter("Vittorio_Veneto_1_509", "[181|18]", 60).
exit("Vittorio_Veneto_1_509", "[181|18]", 135).
enter("Vittorio_Veneto_1_509", "[17|71]", 135).
exit("Vittorio_Veneto_1_509", "[17|71]", 215).
enter("Vittorio_Veneto_1_509", "86", 215).
exit("Vittorio_Veneto_1_509", "86", 245).
origin("Vittorio_Veneto_2_557", "224[0]").
enter("Vittorio_Veneto_2_557", "224[0]", 0).
exit("Vittorio_Veneto_2_557", "224[0]", 75).
enter("Vittorio_Veneto_2_557", "224[1]", 75).
exit("Vittorio_Veneto_2_557", "224[1]", 135).
enter("Vittorio_Veneto_2_557", "[181|18]", 135).
exit("Vittorio_Veneto_2_557", "[181|18]", 180).
enter("Vittorio_Veneto_2_557", "[17|71]", 180).
exit("Vittorio_Veneto_2_557", "[17|71]", 230).
enter("Vittorio_Veneto_2_557", "67", 230).
exit("Vittorio_Veneto_2_557", "67", 240).
enter("Vittorio_Veneto_2_557", "[80|127]", 240).
exit("Vittorio_Veneto_2_557", "[80|127]", 290).
enter("Vittorio_Veneto_2_557", "(77[1][0])", 290).
exit("Vittorio_Veneto_2_557", "(77[1][0])", 345).
enter("Vittorio_Veneto_2_557", "77[1][1]", 345).
exit("Vittorio_Veneto_2_557", "77[1][1]", 980).
origin("Audinot_10_102", "119").
enter("Audinot_10_102", "119", 0).
exit("Audinot_10_102", "119", 20).
enter("Audinot_10_102", "[116|46]", 20).
exit("Audinot_10_102", "[116|46]", 70).
enter("Audinot_10_102", "201", 70).
exit("Audinot_10_102", "201", 205).
enter("Audinot_10_102", "201c", 205).
exit("Audinot_10_102", "201c", 240).
enter("Audinot_10_102", "204a[0]", 240).
exit("Audinot_10_102", "204a[0]", 360).
enter("Audinot_10_102", "204b[0]", 360).
exit("Audinot_10_102", "204b[0]", 365).
enter("Audinot_10_102", "204[1][0]", 365).
exit("Audinot_10_102", "204[1][0]", 400).
enter("Audinot_10_102", "204[1][1]", 400).
exit("Audinot_10_102", "204[1][1]", 435).
origin("Pepoli_3_1847", "159").
enter("Pepoli_3_1847", "159", 0).
exit("Pepoli_3_1847", "159", 105).
enter("Pepoli_3_1847", "42", 105).
exit("Pepoli_3_1847", "42", 125).
enter("Pepoli_3_1847", "39", 125).
exit("Pepoli_3_1847", "39", 145).
enter("Pepoli_3_1847", "35", 145).
exit("Pepoli_3_1847", "35", 200).
enter("Pepoli_3_1847", "38", 200).
exit("Pepoli_3_1847", "38", 260).
enter("Pepoli_3_1847", "15", 260).
exit("Pepoli_3_1847", "15", 335).
enter("Pepoli_3_1847", "14", 335).
exit("Pepoli_3_1847", "14", 375).
origin("Vittorio_Veneto_2_548", "224[0]").
enter("Vittorio_Veneto_2_548", "224[0]", 0).
exit("Vittorio_Veneto_2_548", "224[0]", 75).
enter("Vittorio_Veneto_2_548", "224[1]", 75).
exit("Vittorio_Veneto_2_548", "224[1]", 135).
enter("Vittorio_Veneto_2_548", "[181|18]", 135).
exit("Vittorio_Veneto_2_548", "[181|18]", 185).
enter("Vittorio_Veneto_2_548", "[17|71]", 185).
exit("Vittorio_Veneto_2_548", "[17|71]", 235).
enter("Vittorio_Veneto_2_548", "67", 235).
exit("Vittorio_Veneto_2_548", "67", 245).
enter("Vittorio_Veneto_2_548", "[80|127]", 245).
exit("Vittorio_Veneto_2_548", "[80|127]", 295).
enter("Vittorio_Veneto_2_548", "(77[1][0])", 295).
exit("Vittorio_Veneto_2_548", "(77[1][0])", 330).
enter("Vittorio_Veneto_2_548", "77[1][1]", 330).
exit("Vittorio_Veneto_2_548", "77[1][1]", 1065).
origin("XXI_Aprile_94_1001", "161").
enter("XXI_Aprile_94_1001", "161", 0).
exit("XXI_Aprile_94_1001", "161", 50).
enter("XXI_Aprile_94_1001", "122", 50).
exit("XXI_Aprile_94_1001", "122", 150).
enter("XXI_Aprile_94_1001", "1b", 150).
exit("XXI_Aprile_94_1001", "1b", 210).
enter("XXI_Aprile_94_1001", "1", 210).
exit("XXI_Aprile_94_1001", "1", 245).
enter("XXI_Aprile_94_1001", "204a[0]", 245).
exit("XXI_Aprile_94_1001", "204a[0]", 365).
enter("XXI_Aprile_94_1001", "204b[0]", 365).
exit("XXI_Aprile_94_1001", "204b[0]", 370).
enter("XXI_Aprile_94_1001", "54", 370).
exit("XXI_Aprile_94_1001", "54", 395).
origin("Togliatti_10_648", "[89[0]|20002+89[1][0]|89[1][1]]").
enter("Togliatti_10_648", "[89[0]|20002+89[1][0]|89[1][1]]", 0).
exit("Togliatti_10_648", "[89[0]|20002+89[1][0]|89[1][1]]", 35).
enter("Togliatti_10_648", "91", 35).
exit("Togliatti_10_648", "91", 65).
enter("Togliatti_10_648", "186", 65).
exit("Togliatti_10_648", "186", 85).
enter("Togliatti_10_648", "[109[0]|109[1][0]+20003|109[1][1]]", 85).
exit("Togliatti_10_648", "[109[0]|109[1][0]+20003|109[1][1]]", 100).
enter("Togliatti_10_648", "[116|46]", 100).
exit("Togliatti_10_648", "[116|46]", 145).
enter("Togliatti_10_648", "201", 145).
exit("Togliatti_10_648", "201", 215).
enter("Togliatti_10_648", "201c", 215).
exit("Togliatti_10_648", "201c", 275).
enter("Togliatti_10_648", "204a[0]", 275).
exit("Togliatti_10_648", "204a[0]", 1355).
enter("Togliatti_10_648", "204b[0]", 1355).
exit("Togliatti_10_648", "204b[0]", 1410).
enter("Togliatti_10_648", "204[1][0]", 1410).
exit("Togliatti_10_648", "204[1][0]", 1445).
enter("Togliatti_10_648", "204[1][1]", 1445).
exit("Togliatti_10_648", "204[1][1]", 1545).
origin("Vittorio_Veneto_73_460", "[202|34]").
enter("Vittorio_Veneto_73_460", "[202|34]", 0).
exit("Vittorio_Veneto_73_460", "[202|34]", 85).
enter("Vittorio_Veneto_73_460", "113", 85).
exit("Vittorio_Veneto_73_460", "113", 155).
enter("Vittorio_Veneto_73_460", "209", 155).
exit("Vittorio_Veneto_73_460", "209", 205).
origin("Togliatti_9_621", "194").
enter("Togliatti_9_621", "194", 0).
exit("Togliatti_9_621", "194", 100).
enter("Togliatti_9_621", "91", 100).
exit("Togliatti_9_621", "91", 105).
enter("Togliatti_9_621", "186", 105).
exit("Togliatti_9_621", "186", 165).
enter("Togliatti_9_621", "[109[0]|109[1][0]+20003|109[1][1]]", 165).
exit("Togliatti_9_621", "[109[0]|109[1][0]+20003|109[1][1]]", 185).
enter("Togliatti_9_621", "[116|46]", 185).
exit("Togliatti_9_621", "[116|46]", 245).
enter("Togliatti_9_621", "201", 245).
exit("Togliatti_9_621", "201", 295).
enter("Togliatti_9_621", "201c", 295).
exit("Togliatti_9_621", "201c", 410).
enter("Togliatti_9_621", "204a[0]", 410).
exit("Togliatti_9_621", "204a[0]", 485).
enter("Togliatti_9_621", "204b[0]", 485).
exit("Togliatti_9_621", "204b[0]", 495).
enter("Togliatti_9_621", "54", 495).
exit("Togliatti_9_621", "54", 1800).
origin("XXI_Aprile_7_957", "[116|46]").
enter("XXI_Aprile_7_957", "[116|46]", 0).
exit("XXI_Aprile_7_957", "[116|46]", 45).
enter("XXI_Aprile_7_957", "113", 45).
exit("XXI_Aprile_7_957", "113", 100).
enter("XXI_Aprile_7_957", "209", 100).
exit("XXI_Aprile_7_957", "209", 855).
origin("Pepoli_3_1911", "159").
enter("Pepoli_3_1911", "159", 0).
exit("Pepoli_3_1911", "159", 105).
enter("Pepoli_3_1911", "42", 105).
exit("Pepoli_3_1911", "42", 125).
enter("Pepoli_3_1911", "39", 125).
exit("Pepoli_3_1911", "39", 145).
enter("Pepoli_3_1911", "35", 145).
exit("Pepoli_3_1911", "35", 200).
enter("Pepoli_3_1911", "38", 200).
exit("Pepoli_3_1911", "38", 260).
enter("Pepoli_3_1911", "15", 260).
exit("Pepoli_3_1911", "15", 335).
enter("Pepoli_3_1911", "14", 335).
exit("Pepoli_3_1911", "14", 375).
origin("XXI_Aprile_94_841", "204a[0]").
enter("XXI_Aprile_94_841", "204a[0]", 0).
exit("XXI_Aprile_94_841", "204a[0]", 105).
enter("XXI_Aprile_94_841", "204b[0]", 105).
exit("XXI_Aprile_94_841", "204b[0]", 295).
enter("XXI_Aprile_94_841", "54", 295).
exit("XXI_Aprile_94_841", "54", 1100).
origin("XXI_Aprile_94_158", "122").
enter("XXI_Aprile_94_158", "122", 0).
exit("XXI_Aprile_94_158", "122", 30).
enter("XXI_Aprile_94_158", "1b", 30).
exit("XXI_Aprile_94_158", "1b", 90).
enter("XXI_Aprile_94_158", "1", 90).
exit("XXI_Aprile_94_158", "1", 125).
enter("XXI_Aprile_94_158", "204a[0]", 125).
exit("XXI_Aprile_94_158", "204a[0]", 245).
enter("XXI_Aprile_94_158", "204b[0]", 245).
exit("XXI_Aprile_94_158", "204b[0]", 250).
enter("XXI_Aprile_94_158", "54", 250).
exit("XXI_Aprile_94_158", "54", 275).
origin("Audinot_10_103", "119").
enter("Audinot_10_103", "119", 0).
exit("Audinot_10_103", "119", 20).
enter("Audinot_10_103", "[116|46]", 20).
exit("Audinot_10_103", "[116|46]", 70).
enter("Audinot_10_103", "201", 70).
exit("Audinot_10_103", "201", 205).
enter("Audinot_10_103", "201c", 205).
exit("Audinot_10_103", "201c", 240).
enter("Audinot_10_103", "204a[0]", 240).
exit("Audinot_10_103", "204a[0]", 360).
enter("Audinot_10_103", "204b[0]", 360).
exit("Audinot_10_103", "204b[0]", 365).
enter("Audinot_10_103", "204[1][0]", 365).
exit("Audinot_10_103", "204[1][0]", 400).
enter("Audinot_10_103", "204[1][1]", 400).
exit("Audinot_10_103", "204[1][1]", 435).
origin("Togliatti_3_2420", "173").
enter("Togliatti_3_2420", "173", 0).
exit("Togliatti_3_2420", "173", 345).
enter("Togliatti_3_2420", "62", 345).
exit("Togliatti_3_2420", "62", 435).
enter("Togliatti_3_2420", "159", 435).
exit("Togliatti_3_2420", "159", 465).
enter("Togliatti_3_2420", "42", 465).
exit("Togliatti_3_2420", "42", 530).
enter("Togliatti_3_2420", "39", 530).
exit("Togliatti_3_2420", "39", 550).
enter("Togliatti_3_2420", "35", 550).
exit("Togliatti_3_2420", "35", 560).
enter("Togliatti_3_2420", "38", 560).
exit("Togliatti_3_2420", "38", 675).
enter("Togliatti_3_2420", "15", 675).
exit("Togliatti_3_2420", "15", 790).
enter("Togliatti_3_2420", "14", 790).
exit("Togliatti_3_2420", "14", 1735).
origin("Togliatti_5_588", "58[1]").
enter("Togliatti_5_588", "58[1]", 0).
exit("Togliatti_5_588", "58[1]", 55).
enter("Togliatti_5_588", "[200|60]", 55).
exit("Togliatti_5_588", "[200|60]", 485).
origin("Pepoli_3_2002", "62").
enter("Pepoli_3_2002", "62", 0).
exit("Pepoli_3_2002", "62", 90).
enter("Pepoli_3_2002", "159", 90).
exit("Pepoli_3_2002", "159", 195).
enter("Pepoli_3_2002", "42", 195).
exit("Pepoli_3_2002", "42", 215).
enter("Pepoli_3_2002", "39", 215).
exit("Pepoli_3_2002", "39", 235).
enter("Pepoli_3_2002", "35", 235).
exit("Pepoli_3_2002", "35", 290).
enter("Pepoli_3_2002", "38", 290).
exit("Pepoli_3_2002", "38", 350).
enter("Pepoli_3_2002", "15", 350).
exit("Pepoli_3_2002", "15", 425).
enter("Pepoli_3_2002", "14", 425).
exit("Pepoli_3_2002", "14", 465).
origin("XXI_Aprile_93_896", "204a[0]").
enter("XXI_Aprile_93_896", "204a[0]", 0).
exit("XXI_Aprile_93_896", "204a[0]", 120).
enter("XXI_Aprile_93_896", "204b[0]", 120).
exit("XXI_Aprile_93_896", "204b[0]", 125).
enter("XXI_Aprile_93_896", "54", 125).
exit("XXI_Aprile_93_896", "54", 150).
origin("Pepoli_3_2006", "62").
enter("Pepoli_3_2006", "62", 0).
exit("Pepoli_3_2006", "62", 25).
enter("Pepoli_3_2006", "159", 25).
exit("Pepoli_3_2006", "159", 80).
enter("Pepoli_3_2006", "42", 80).
exit("Pepoli_3_2006", "42", 105).
enter("Pepoli_3_2006", "39", 105).
exit("Pepoli_3_2006", "39", 115).
enter("Pepoli_3_2006", "35", 115).
exit("Pepoli_3_2006", "35", 195).
enter("Pepoli_3_2006", "38", 195).
exit("Pepoli_3_2006", "38", 245).
enter("Pepoli_3_2006", "15", 245).
exit("Pepoli_3_2006", "15", 290).
enter("Pepoli_3_2006", "14", 290).
exit("Pepoli_3_2006", "14", 345).
origin("Audinot_12_106", "57[0]").
enter("Audinot_12_106", "57[0]", 0).
exit("Audinot_12_106", "57[0]", 85).
enter("Audinot_12_106", "57[1]", 85).
exit("Audinot_12_106", "57[1]", 100).
enter("Audinot_12_106", "62", 100).
exit("Audinot_12_106", "62", 190).
enter("Audinot_12_106", "159", 190).
exit("Audinot_12_106", "159", 295).
enter("Audinot_12_106", "42", 295).
exit("Audinot_12_106", "42", 315).
enter("Audinot_12_106", "39", 315).
exit("Audinot_12_106", "39", 335).
enter("Audinot_12_106", "35", 335).
exit("Audinot_12_106", "35", 390).
enter("Audinot_12_106", "38", 390).
exit("Audinot_12_106", "38", 450).
enter("Audinot_12_106", "50", 450).
exit("Audinot_12_106", "50", 510).
enter("Audinot_12_106", "19", 510).
exit("Audinot_12_106", "19", 545).
enter("Audinot_12_106", "[22|59]", 545).
exit("Audinot_12_106", "[22|59]", 615).
enter("Audinot_12_106", "(53cd|53[0]|53[1][0])", 615).
exit("Audinot_12_106", "(53cd|53[0]|53[1][0])", 635).
enter("Audinot_12_106", "79", 635).
exit("Audinot_12_106", "79", 675).
enter("Audinot_12_106", "[68|11]", 675).
exit("Audinot_12_106", "[68|11]", 720).
enter("Audinot_12_106", "84", 720).
exit("Audinot_12_106", "84", 740).
enter("Audinot_12_106", "180", 740).
exit("Audinot_12_106", "180", 835).
origin("Togliatti_10_662", "161").
enter("Togliatti_10_662", "161", 0).
exit("Togliatti_10_662", "161", 30).
enter("Togliatti_10_662", "122", 30).
exit("Togliatti_10_662", "122", 70).
enter("Togliatti_10_662", "1b", 70).
exit("Togliatti_10_662", "1b", 420).
enter("Togliatti_10_662", "1", 420).
exit("Togliatti_10_662", "1", 470).
enter("Togliatti_10_662", "204a[0]", 470).
exit("Togliatti_10_662", "204a[0]", 1335).
enter("Togliatti_10_662", "204b[0]", 1335).
exit("Togliatti_10_662", "204b[0]", 1350).
enter("Togliatti_10_662", "204[1][0]", 1350).
exit("Togliatti_10_662", "204[1][0]", 1410).
enter("Togliatti_10_662", "204[1][1]", 1410).
exit("Togliatti_10_662", "204[1][1]", 1790).
origin("Costa_200_813", "204a[0]").
enter("Costa_200_813", "204a[0]", 0).
exit("Costa_200_813", "204a[0]", 120).
enter("Costa_200_813", "204b[0]", 120).
exit("Costa_200_813", "204b[0]", 125).
enter("Costa_200_813", "204[1][0]", 125).
exit("Costa_200_813", "204[1][0]", 160).
enter("Costa_200_813", "204[1][1]", 160).
exit("Costa_200_813", "204[1][1]", 195).
origin("XXI_Aprile_94_174", "122").
enter("XXI_Aprile_94_174", "122", 0).
exit("XXI_Aprile_94_174", "122", 30).
enter("XXI_Aprile_94_174", "1b", 30).
exit("XXI_Aprile_94_174", "1b", 90).
enter("XXI_Aprile_94_174", "1", 90).
exit("XXI_Aprile_94_174", "1", 125).
enter("XXI_Aprile_94_174", "204a[0]", 125).
exit("XXI_Aprile_94_174", "204a[0]", 245).
enter("XXI_Aprile_94_174", "204b[0]", 245).
exit("XXI_Aprile_94_174", "204b[0]", 250).
enter("XXI_Aprile_94_174", "54", 250).
exit("XXI_Aprile_94_174", "54", 275).
origin("Togliatti_11_658", "[89[0]|20002+89[1][0]|89[1][1]]").
enter("Togliatti_11_658", "[89[0]|20002+89[1][0]|89[1][1]]", 0).
exit("Togliatti_11_658", "[89[0]|20002+89[1][0]|89[1][1]]", 25).
enter("Togliatti_11_658", "91", 25).
exit("Togliatti_11_658", "91", 40).
enter("Togliatti_11_658", "186", 40).
exit("Togliatti_11_658", "186", 70).
enter("Togliatti_11_658", "[109[0]|109[1][0]+20003|109[1][1]]", 70).
exit("Togliatti_11_658", "[109[0]|109[1][0]+20003|109[1][1]]", 80).
enter("Togliatti_11_658", "[116|46]", 80).
exit("Togliatti_11_658", "[116|46]", 175).
enter("Togliatti_11_658", "201", 175).
exit("Togliatti_11_658", "201", 265).
enter("Togliatti_11_658", "201c", 265).
exit("Togliatti_11_658", "201c", 300).
enter("Togliatti_11_658", "204a[0]", 300).
exit("Togliatti_11_658", "204a[0]", 375).
enter("Togliatti_11_658", "124", 375).
exit("Togliatti_11_658", "124", 1735).
origin("XXI_Aprile_102_622", "204a[0]").
enter("XXI_Aprile_102_622", "204a[0]", 0).
exit("XXI_Aprile_102_622", "204a[0]", 120).
enter("XXI_Aprile_102_622", "204b[0]", 120).
exit("XXI_Aprile_102_622", "204b[0]", 125).
enter("XXI_Aprile_102_622", "204[1][0]", 125).
exit("XXI_Aprile_102_622", "204[1][0]", 160).
enter("XXI_Aprile_102_622", "204[1][1]", 160).
exit("XXI_Aprile_102_622", "204[1][1]", 195).
origin("Vittorio_Veneto_10_463", "161").
enter("Vittorio_Veneto_10_463", "161", 0).
exit("Vittorio_Veneto_10_463", "161", 50).
enter("Vittorio_Veneto_10_463", "122", 50).
exit("Vittorio_Veneto_10_463", "122", 150).
enter("Vittorio_Veneto_10_463", "1b", 150).
exit("Vittorio_Veneto_10_463", "1b", 210).
enter("Vittorio_Veneto_10_463", "1", 210).
exit("Vittorio_Veneto_10_463", "1", 245).
enter("Vittorio_Veneto_10_463", "204a[0]", 245).
exit("Vittorio_Veneto_10_463", "204a[0]", 365).
enter("Vittorio_Veneto_10_463", "204b[0]", 365).
exit("Vittorio_Veneto_10_463", "204b[0]", 370).
enter("Vittorio_Veneto_10_463", "204[1][0]", 370).
exit("Vittorio_Veneto_10_463", "204[1][0]", 405).
enter("Vittorio_Veneto_10_463", "204[1][1]", 405).
exit("Vittorio_Veneto_10_463", "204[1][1]", 440).
origin("XXI_Aprile_94_693", "161").
enter("XXI_Aprile_94_693", "161", 0).
exit("XXI_Aprile_94_693", "161", 50).
enter("XXI_Aprile_94_693", "122", 50).
exit("XXI_Aprile_94_693", "122", 150).
enter("XXI_Aprile_94_693", "1b", 150).
exit("XXI_Aprile_94_693", "1b", 210).
enter("XXI_Aprile_94_693", "1", 210).
exit("XXI_Aprile_94_693", "1", 245).
enter("XXI_Aprile_94_693", "204a[0]", 245).
exit("XXI_Aprile_94_693", "204a[0]", 365).
enter("XXI_Aprile_94_693", "204b[0]", 365).
exit("XXI_Aprile_94_693", "204b[0]", 370).
enter("XXI_Aprile_94_693", "54", 370).
exit("XXI_Aprile_94_693", "54", 395).
origin("Costa_50_1268", "194").
enter("Costa_50_1268", "194", 0).
exit("Costa_50_1268", "194", 15).
enter("Costa_50_1268", "91", 15).
exit("Costa_50_1268", "91", 25).
enter("Costa_50_1268", "173", 25).
exit("Costa_50_1268", "173", 55).
enter("Costa_50_1268", "58[0]", 55).
exit("Costa_50_1268", "58[0]", 65).
enter("Costa_50_1268", "58[1]", 65).
exit("Costa_50_1268", "58[1]", 85).
enter("Costa_50_1268", "[200|60]", 85).
exit("Costa_50_1268", "[200|60]", 965).
origin("Costa_70_1350", "[109[0]|109[1][0]+20003|109[1][1]]").
enter("Costa_70_1350", "[109[0]|109[1][0]+20003|109[1][1]]", 0).
exit("Costa_70_1350", "[109[0]|109[1][0]+20003|109[1][1]]", 35).
enter("Costa_70_1350", "[116|46]", 35).
exit("Costa_70_1350", "[116|46]", 100).
enter("Costa_70_1350", "113", 100).
exit("Costa_70_1350", "113", 170).
enter("Costa_70_1350", "209", 170).
exit("Costa_70_1350", "209", 220).
origin("XXI_Aprile_94_899", "122").
enter("XXI_Aprile_94_899", "122", 0).
exit("XXI_Aprile_94_899", "122", 100).
enter("XXI_Aprile_94_899", "1b", 100).
exit("XXI_Aprile_94_899", "1b", 160).
enter("XXI_Aprile_94_899", "1", 160).
exit("XXI_Aprile_94_899", "1", 195).
enter("XXI_Aprile_94_899", "204a[0]", 195).
exit("XXI_Aprile_94_899", "204a[0]", 315).
enter("XXI_Aprile_94_899", "204b[0]", 315).
exit("XXI_Aprile_94_899", "204b[0]", 320).
enter("XXI_Aprile_94_899", "54", 320).
exit("XXI_Aprile_94_899", "54", 345).
origin("Costa_200_1216", "194").
enter("Costa_200_1216", "194", 0).
exit("Costa_200_1216", "194", 15).
enter("Costa_200_1216", "91", 15).
exit("Costa_200_1216", "91", 20).
enter("Costa_200_1216", "186", 20).
exit("Costa_200_1216", "186", 35).
enter("Costa_200_1216", "[109[0]|109[1][0]+20003|109[1][1]]", 35).
exit("Costa_200_1216", "[109[0]|109[1][0]+20003|109[1][1]]", 45).
enter("Costa_200_1216", "[116|46]", 45).
exit("Costa_200_1216", "[116|46]", 90).
enter("Costa_200_1216", "201", 90).
exit("Costa_200_1216", "201", 1240).
enter("Costa_200_1216", "201c", 1240).
exit("Costa_200_1216", "201c", 1320).
enter("Costa_200_1216", "204a[0]", 1320).
exit("Costa_200_1216", "204a[0]", 1950).
enter("Costa_200_1216", "204b[0]", 1950).
exit("Costa_200_1216", "204b[0]", 2055).
enter("Costa_200_1216", "204[1][0]", 2055).
exit("Costa_200_1216", "204[1][0]", 2125).
enter("Costa_200_1216", "204[1][1]", 2125).
exit("Costa_200_1216", "204[1][1]", 2210).
origin("Togliatti_10_522", "194").
enter("Togliatti_10_522", "194", 0).
exit("Togliatti_10_522", "194", 145).
enter("Togliatti_10_522", "91", 145).
exit("Togliatti_10_522", "91", 155).
enter("Togliatti_10_522", "186", 155).
exit("Togliatti_10_522", "186", 160).
enter("Togliatti_10_522", "[109[0]|109[1][0]+20003|109[1][1]]", 160).
exit("Togliatti_10_522", "[109[0]|109[1][0]+20003|109[1][1]]", 190).
enter("Togliatti_10_522", "[116|46]", 190).
exit("Togliatti_10_522", "[116|46]", 240).
enter("Togliatti_10_522", "201", 240).
exit("Togliatti_10_522", "201", 445).
enter("Togliatti_10_522", "201c", 445).
exit("Togliatti_10_522", "201c", 580).
enter("Togliatti_10_522", "204a[0]", 580).
exit("Togliatti_10_522", "204a[0]", 1230).
enter("Togliatti_10_522", "204b[0]", 1230).
exit("Togliatti_10_522", "204b[0]", 1395).
enter("Togliatti_10_522", "204[1][0]", 1395).
exit("Togliatti_10_522", "204[1][0]", 1495).
enter("Togliatti_10_522", "204[1][1]", 1495).
exit("Togliatti_10_522", "204[1][1]", 1530).
origin("Audinot_12_101", "57[0]").
enter("Audinot_12_101", "57[0]", 0).
exit("Audinot_12_101", "57[0]", 85).
enter("Audinot_12_101", "57[1]", 85).
exit("Audinot_12_101", "57[1]", 100).
enter("Audinot_12_101", "62", 100).
exit("Audinot_12_101", "62", 190).
enter("Audinot_12_101", "159", 190).
exit("Audinot_12_101", "159", 295).
enter("Audinot_12_101", "42", 295).
exit("Audinot_12_101", "42", 315).
enter("Audinot_12_101", "39", 315).
exit("Audinot_12_101", "39", 335).
enter("Audinot_12_101", "35", 335).
exit("Audinot_12_101", "35", 390).
enter("Audinot_12_101", "38", 390).
exit("Audinot_12_101", "38", 450).
enter("Audinot_12_101", "50", 450).
exit("Audinot_12_101", "50", 510).
enter("Audinot_12_101", "19", 510).
exit("Audinot_12_101", "19", 545).
enter("Audinot_12_101", "[22|59]", 545).
exit("Audinot_12_101", "[22|59]", 615).
enter("Audinot_12_101", "(53cd|53[0]|53[1][0])", 615).
exit("Audinot_12_101", "(53cd|53[0]|53[1][0])", 635).
enter("Audinot_12_101", "79", 635).
exit("Audinot_12_101", "79", 705).
enter("Audinot_12_101", "[68|11]", 705).
exit("Audinot_12_101", "[68|11]", 785).
enter("Audinot_12_101", "84", 785).
exit("Audinot_12_101", "84", 845).
enter("Audinot_12_101", "180", 845).
exit("Audinot_12_101", "180", 940).
origin("XXI_Aprile_102_566", "204a[0]").
enter("XXI_Aprile_102_566", "204a[0]", 0).
exit("XXI_Aprile_102_566", "204a[0]", 120).
enter("XXI_Aprile_102_566", "204b[0]", 120).
exit("XXI_Aprile_102_566", "204b[0]", 125).
enter("XXI_Aprile_102_566", "204[1][0]", 125).
exit("XXI_Aprile_102_566", "204[1][0]", 160).
enter("XXI_Aprile_102_566", "204[1][1]", 160).
exit("XXI_Aprile_102_566", "204[1][1]", 195).
origin("Vittorio_Veneto_73_588", "224[0]").
enter("Vittorio_Veneto_73_588", "224[0]", 0).
exit("Vittorio_Veneto_73_588", "224[0]", 140).
enter("Vittorio_Veneto_73_588", "224[1]", 140).
exit("Vittorio_Veneto_73_588", "224[1]", 200).
enter("Vittorio_Veneto_73_588", "[181|18]", 200).
exit("Vittorio_Veneto_73_588", "[181|18]", 275).
enter("Vittorio_Veneto_73_588", "69", 275).
exit("Vittorio_Veneto_73_588", "69", 370).
enter("Vittorio_Veneto_73_588", "161", 370).
exit("Vittorio_Veneto_73_588", "161", 395).
enter("Vittorio_Veneto_73_588", "122", 395).
exit("Vittorio_Veneto_73_588", "122", 495).
enter("Vittorio_Veneto_73_588", "[3|2]", 495).
exit("Vittorio_Veneto_73_588", "[3|2]", 530).
enter("Vittorio_Veneto_73_588", "[202|34]", 530).
exit("Vittorio_Veneto_73_588", "[202|34]", 580).
enter("Vittorio_Veneto_73_588", "113", 580).
exit("Vittorio_Veneto_73_588", "113", 620).
enter("Vittorio_Veneto_73_588", "209", 620).
exit("Vittorio_Veneto_73_588", "209", 655).
origin("Vittorio_Veneto_1_550", "224[0]").
enter("Vittorio_Veneto_1_550", "224[0]", 0).
exit("Vittorio_Veneto_1_550", "224[0]", 80).
enter("Vittorio_Veneto_1_550", "224[1]", 80).
exit("Vittorio_Veneto_1_550", "224[1]", 135).
enter("Vittorio_Veneto_1_550", "[181|18]", 135).
exit("Vittorio_Veneto_1_550", "[181|18]", 210).
enter("Vittorio_Veneto_1_550", "[17|71]", 210).
exit("Vittorio_Veneto_1_550", "[17|71]", 275).
enter("Vittorio_Veneto_1_550", "86", 275).
exit("Vittorio_Veneto_1_550", "86", 975).
origin("Pepoli_12_1792", "35").
enter("Pepoli_12_1792", "35", 0).
exit("Pepoli_12_1792", "35", 55).
enter("Pepoli_12_1792", "38", 55).
exit("Pepoli_12_1792", "38", 115).
enter("Pepoli_12_1792", "50", 115).
exit("Pepoli_12_1792", "50", 175).
enter("Pepoli_12_1792", "19", 175).
exit("Pepoli_12_1792", "19", 210).
enter("Pepoli_12_1792", "[22|59]", 210).
exit("Pepoli_12_1792", "[22|59]", 280).
enter("Pepoli_12_1792", "(53cd|53[0]|53[1][0])", 280).
exit("Pepoli_12_1792", "(53cd|53[0]|53[1][0])", 300).
enter("Pepoli_12_1792", "79", 300).
exit("Pepoli_12_1792", "79", 370).
enter("Pepoli_12_1792", "[68|11]", 370).
exit("Pepoli_12_1792", "[68|11]", 415).
enter("Pepoli_12_1792", "84", 415).
exit("Pepoli_12_1792", "84", 435).
enter("Pepoli_12_1792", "180", 435).
exit("Pepoli_12_1792", "180", 530).
origin("Togliatti_10_589", "85").
enter("Togliatti_10_589", "85", 0).
exit("Togliatti_10_589", "85", 60).
enter("Togliatti_10_589", "72[0]", 60).
exit("Togliatti_10_589", "72[0]", 300).
enter("Togliatti_10_589", "72[1]", 300).
exit("Togliatti_10_589", "72[1]", 615).
enter("Togliatti_10_589", "69", 615).
exit("Togliatti_10_589", "69", 720).
enter("Togliatti_10_589", "161", 720).
exit("Togliatti_10_589", "161", 745).
enter("Togliatti_10_589", "122", 745).
exit("Togliatti_10_589", "122", 1440).
enter("Togliatti_10_589", "1b", 1440).
exit("Togliatti_10_589", "1b", 2000).
enter("Togliatti_10_589", "1", 2000).
exit("Togliatti_10_589", "1", 2035).
enter("Togliatti_10_589", "204a[0]", 2035).
exit("Togliatti_10_589", "204a[0]", 2290).
enter("Togliatti_10_589", "204b[0]", 2290).
exit("Togliatti_10_589", "204b[0]", 2395).
enter("Togliatti_10_589", "204[1][0]", 2395).
exit("Togliatti_10_589", "204[1][0]", 2485).
enter("Togliatti_10_589", "204[1][1]", 2485).
exit("Togliatti_10_589", "204[1][1]", 2710).
origin("Pepoli_12_1949", "159").
enter("Pepoli_12_1949", "159", 0).
exit("Pepoli_12_1949", "159", 105).
enter("Pepoli_12_1949", "42", 105).
exit("Pepoli_12_1949", "42", 125).
enter("Pepoli_12_1949", "39", 125).
exit("Pepoli_12_1949", "39", 145).
enter("Pepoli_12_1949", "35", 145).
exit("Pepoli_12_1949", "35", 200).
enter("Pepoli_12_1949", "38", 200).
exit("Pepoli_12_1949", "38", 260).
enter("Pepoli_12_1949", "50", 260).
exit("Pepoli_12_1949", "50", 320).
enter("Pepoli_12_1949", "19", 320).
exit("Pepoli_12_1949", "19", 355).
enter("Pepoli_12_1949", "[22|59]", 355).
exit("Pepoli_12_1949", "[22|59]", 425).
enter("Pepoli_12_1949", "(53cd|53[0]|53[1][0])", 425).
exit("Pepoli_12_1949", "(53cd|53[0]|53[1][0])", 445).
enter("Pepoli_12_1949", "79", 445).
exit("Pepoli_12_1949", "79", 515).
enter("Pepoli_12_1949", "[68|11]", 515).
exit("Pepoli_12_1949", "[68|11]", 595).
enter("Pepoli_12_1949", "84", 595).
exit("Pepoli_12_1949", "84", 615).
enter("Pepoli_12_1949", "180", 615).
exit("Pepoli_12_1949", "180", 665).
origin("Togliatti_3_2475", "194").
enter("Togliatti_3_2475", "194", 0).
exit("Togliatti_3_2475", "194", 75).
enter("Togliatti_3_2475", "91", 75).
exit("Togliatti_3_2475", "91", 80).
enter("Togliatti_3_2475", "173", 80).
exit("Togliatti_3_2475", "173", 135).
enter("Togliatti_3_2475", "62", 135).
exit("Togliatti_3_2475", "62", 190).
enter("Togliatti_3_2475", "159", 190).
exit("Togliatti_3_2475", "159", 210).
enter("Togliatti_3_2475", "42", 210).
exit("Togliatti_3_2475", "42", 270).
enter("Togliatti_3_2475", "39", 270).
exit("Togliatti_3_2475", "39", 295).
enter("Togliatti_3_2475", "35", 295).
exit("Togliatti_3_2475", "35", 465).
enter("Togliatti_3_2475", "38", 465).
exit("Togliatti_3_2475", "38", 530).
enter("Togliatti_3_2475", "15", 530).
exit("Togliatti_3_2475", "15", 620).
enter("Togliatti_3_2475", "14", 620).
exit("Togliatti_3_2475", "14", 1355).
origin("Togliatti_10_414", "122").
enter("Togliatti_10_414", "122", 0).
exit("Togliatti_10_414", "122", 55).
enter("Togliatti_10_414", "1b", 55).
exit("Togliatti_10_414", "1b", 115).
enter("Togliatti_10_414", "1", 115).
exit("Togliatti_10_414", "1", 150).
enter("Togliatti_10_414", "204a[0]", 150).
exit("Togliatti_10_414", "204a[0]", 270).
enter("Togliatti_10_414", "204b[0]", 270).
exit("Togliatti_10_414", "204b[0]", 275).
enter("Togliatti_10_414", "204[1][0]", 275).
exit("Togliatti_10_414", "204[1][0]", 310).
enter("Togliatti_10_414", "204[1][1]", 310).
exit("Togliatti_10_414", "204[1][1]", 345).
origin("Vittorio_Veneto_82_504", "[181|18]").
enter("Vittorio_Veneto_82_504", "[181|18]", 0).
exit("Vittorio_Veneto_82_504", "[181|18]", 75).
enter("Vittorio_Veneto_82_504", "69", 75).
exit("Vittorio_Veneto_82_504", "69", 170).
enter("Vittorio_Veneto_82_504", "161", 170).
exit("Vittorio_Veneto_82_504", "161", 195).
enter("Vittorio_Veneto_82_504", "122", 195).
exit("Vittorio_Veneto_82_504", "122", 295).
enter("Vittorio_Veneto_82_504", "[3|2]", 295).
exit("Vittorio_Veneto_82_504", "[3|2]", 335).
enter("Vittorio_Veneto_82_504", "[202|34]", 335).
exit("Vittorio_Veneto_82_504", "[202|34]", 385).
enter("Vittorio_Veneto_82_504", "134", 385).
exit("Vittorio_Veneto_82_504", "134", 395).
origin("Togliatti_10_370", "122").
enter("Togliatti_10_370", "122", 0).
exit("Togliatti_10_370", "122", 400).
enter("Togliatti_10_370", "1b", 400).
exit("Togliatti_10_370", "1b", 1460).
enter("Togliatti_10_370", "1", 1460).
exit("Togliatti_10_370", "1", 1510).
enter("Togliatti_10_370", "204a[0]", 1510).
exit("Togliatti_10_370", "204a[0]", 1590).
enter("Togliatti_10_370", "204b[0]", 1590).
exit("Togliatti_10_370", "204b[0]", 1620).
enter("Togliatti_10_370", "204[1][0]", 1620).
exit("Togliatti_10_370", "204[1][0]", 1675).
enter("Togliatti_10_370", "204[1][1]", 1675).
exit("Togliatti_10_370", "204[1][1]", 1820).
origin("Togliatti_10_604", "85").
enter("Togliatti_10_604", "85", 0).
exit("Togliatti_10_604", "85", 60).
enter("Togliatti_10_604", "72[0]", 60).
exit("Togliatti_10_604", "72[0]", 135).
enter("Togliatti_10_604", "72[1]", 135).
exit("Togliatti_10_604", "72[1]", 175).
enter("Togliatti_10_604", "69", 175).
exit("Togliatti_10_604", "69", 270).
enter("Togliatti_10_604", "161", 270).
exit("Togliatti_10_604", "161", 320).
enter("Togliatti_10_604", "122", 320).
exit("Togliatti_10_604", "122", 420).
enter("Togliatti_10_604", "1b", 420).
exit("Togliatti_10_604", "1b", 480).
enter("Togliatti_10_604", "1", 480).
exit("Togliatti_10_604", "1", 515).
enter("Togliatti_10_604", "204a[0]", 515).
exit("Togliatti_10_604", "204a[0]", 635).
enter("Togliatti_10_604", "204b[0]", 635).
exit("Togliatti_10_604", "204b[0]", 640).
enter("Togliatti_10_604", "204[1][0]", 640).
exit("Togliatti_10_604", "204[1][0]", 675).
enter("Togliatti_10_604", "204[1][1]", 675).
exit("Togliatti_10_604", "204[1][1]", 710).
origin("XXI_Aprile_9_857", "204a[0]").
enter("XXI_Aprile_9_857", "204a[0]", 0).
exit("XXI_Aprile_9_857", "204a[0]", 120).
enter("XXI_Aprile_9_857", "204b[0]", 120).
exit("XXI_Aprile_9_857", "204b[0]", 125).
enter("XXI_Aprile_9_857", "54", 125).
exit("XXI_Aprile_9_857", "54", 150).
origin("Costa_70_1342", "[116|46]").
enter("Costa_70_1342", "[116|46]", 0).
exit("Costa_70_1342", "[116|46]", 65).
enter("Costa_70_1342", "113", 65).
exit("Costa_70_1342", "113", 135).
enter("Costa_70_1342", "209", 135).
exit("Costa_70_1342", "209", 185).
origin("Togliatti_10_282", "122").
enter("Togliatti_10_282", "122", 0).
exit("Togliatti_10_282", "122", 20).
enter("Togliatti_10_282", "1b", 20).
exit("Togliatti_10_282", "1b", 80).
enter("Togliatti_10_282", "1", 80).
exit("Togliatti_10_282", "1", 115).
enter("Togliatti_10_282", "204a[0]", 115).
exit("Togliatti_10_282", "204a[0]", 235).
enter("Togliatti_10_282", "204b[0]", 235).
exit("Togliatti_10_282", "204b[0]", 240).
enter("Togliatti_10_282", "204[1][0]", 240).
exit("Togliatti_10_282", "204[1][0]", 275).
enter("Togliatti_10_282", "204[1][1]", 275).
exit("Togliatti_10_282", "204[1][1]", 310).
origin("Togliatti_10_664", "[89[0]|20002+89[1][0]|89[1][1]]").
enter("Togliatti_10_664", "[89[0]|20002+89[1][0]|89[1][1]]", 0).
exit("Togliatti_10_664", "[89[0]|20002+89[1][0]|89[1][1]]", 25).
enter("Togliatti_10_664", "91", 25).
exit("Togliatti_10_664", "91", 40).
enter("Togliatti_10_664", "186", 40).
exit("Togliatti_10_664", "186", 45).
enter("Togliatti_10_664", "[109[0]|109[1][0]+20003|109[1][1]]", 45).
exit("Togliatti_10_664", "[109[0]|109[1][0]+20003|109[1][1]]", 65).
enter("Togliatti_10_664", "[116|46]", 65).
exit("Togliatti_10_664", "[116|46]", 110).
enter("Togliatti_10_664", "201", 110).
exit("Togliatti_10_664", "201", 160).
enter("Togliatti_10_664", "201c", 160).
exit("Togliatti_10_664", "201c", 290).
enter("Togliatti_10_664", "204a[0]", 290).
exit("Togliatti_10_664", "204a[0]", 1400).
enter("Togliatti_10_664", "204b[0]", 1400).
exit("Togliatti_10_664", "204b[0]", 1435).
enter("Togliatti_10_664", "204[1][0]", 1435).
exit("Togliatti_10_664", "204[1][0]", 1470).
enter("Togliatti_10_664", "204[1][1]", 1470).
exit("Togliatti_10_664", "204[1][1]", 1605).
origin("Togliatti_10_606", "85").
enter("Togliatti_10_606", "85", 0).
exit("Togliatti_10_606", "85", 60).
enter("Togliatti_10_606", "72[0]", 60).
exit("Togliatti_10_606", "72[0]", 135).
enter("Togliatti_10_606", "72[1]", 135).
exit("Togliatti_10_606", "72[1]", 175).
enter("Togliatti_10_606", "69", 175).
exit("Togliatti_10_606", "69", 270).
enter("Togliatti_10_606", "161", 270).
exit("Togliatti_10_606", "161", 295).
enter("Togliatti_10_606", "122", 295).
exit("Togliatti_10_606", "122", 395).
enter("Togliatti_10_606", "1b", 395).
exit("Togliatti_10_606", "1b", 455).
enter("Togliatti_10_606", "1", 455).
exit("Togliatti_10_606", "1", 490).
enter("Togliatti_10_606", "204a[0]", 490).
exit("Togliatti_10_606", "204a[0]", 610).
enter("Togliatti_10_606", "204b[0]", 610).
exit("Togliatti_10_606", "204b[0]", 615).
enter("Togliatti_10_606", "204[1][0]", 615).
exit("Togliatti_10_606", "204[1][0]", 650).
enter("Togliatti_10_606", "204[1][1]", 650).
exit("Togliatti_10_606", "204[1][1]", 685).
origin("Vittorio_Veneto_10_503", "[181|18]").
enter("Vittorio_Veneto_10_503", "[181|18]", 0).
exit("Vittorio_Veneto_10_503", "[181|18]", 75).
enter("Vittorio_Veneto_10_503", "69", 75).
exit("Vittorio_Veneto_10_503", "69", 170).
enter("Vittorio_Veneto_10_503", "161", 170).
exit("Vittorio_Veneto_10_503", "161", 195).
enter("Vittorio_Veneto_10_503", "122", 195).
exit("Vittorio_Veneto_10_503", "122", 295).
enter("Vittorio_Veneto_10_503", "1b", 295).
exit("Vittorio_Veneto_10_503", "1b", 355).
enter("Vittorio_Veneto_10_503", "1", 355).
exit("Vittorio_Veneto_10_503", "1", 390).
enter("Vittorio_Veneto_10_503", "204a[0]", 390).
exit("Vittorio_Veneto_10_503", "204a[0]", 510).
enter("Vittorio_Veneto_10_503", "204b[0]", 510).
exit("Vittorio_Veneto_10_503", "204b[0]", 515).
enter("Vittorio_Veneto_10_503", "204[1][0]", 515).
exit("Vittorio_Veneto_10_503", "204[1][0]", 550).
enter("Vittorio_Veneto_10_503", "204[1][1]", 550).
exit("Vittorio_Veneto_10_503", "204[1][1]", 585).
origin("Vittorio_Veneto_1_506", "[181|18]").
enter("Vittorio_Veneto_1_506", "[181|18]", 0).
exit("Vittorio_Veneto_1_506", "[181|18]", 75).
enter("Vittorio_Veneto_1_506", "[17|71]", 75).
exit("Vittorio_Veneto_1_506", "[17|71]", 155).
enter("Vittorio_Veneto_1_506", "86", 155).
exit("Vittorio_Veneto_1_506", "86", 185).
origin("Audinot_5_125", "131").
enter("Audinot_5_125", "131", 0).
exit("Audinot_5_125", "131", 150).
enter("Audinot_5_125", "65", 150).
exit("Audinot_5_125", "65", 195).
enter("Audinot_5_125", "[200|60]", 195).
exit("Audinot_5_125", "[200|60]", 330).
origin("Pepoli_3_1926", "159").
enter("Pepoli_3_1926", "159", 0).
exit("Pepoli_3_1926", "159", 105).
enter("Pepoli_3_1926", "42", 105).
exit("Pepoli_3_1926", "42", 125).
enter("Pepoli_3_1926", "39", 125).
exit("Pepoli_3_1926", "39", 145).
enter("Pepoli_3_1926", "35", 145).
exit("Pepoli_3_1926", "35", 200).
enter("Pepoli_3_1926", "38", 200).
exit("Pepoli_3_1926", "38", 260).
enter("Pepoli_3_1926", "15", 260).
exit("Pepoli_3_1926", "15", 335).
enter("Pepoli_3_1926", "14", 335).
exit("Pepoli_3_1926", "14", 375).
origin("Costa_50_1370", "91").
enter("Costa_50_1370", "91", 0).
exit("Costa_50_1370", "91", 20).
enter("Costa_50_1370", "186", 20).
exit("Costa_50_1370", "186", 50).
enter("Costa_50_1370", "[109[0]|109[1][0]+20003|109[1][1]]", 50).
exit("Costa_50_1370", "[109[0]|109[1][0]+20003|109[1][1]]", 85).
enter("Costa_50_1370", "120", 85).
exit("Costa_50_1370", "120", 160).
enter("Costa_50_1370", "65", 160).
exit("Costa_50_1370", "65", 205).
enter("Costa_50_1370", "[200|60]", 205).
exit("Costa_50_1370", "[200|60]", 340).
origin("XXI_Aprile_9_532", "54").
enter("XXI_Aprile_9_532", "54", 0).
exit("XXI_Aprile_9_532", "54", 25).
origin("Togliatti_10_721", "85").
enter("Togliatti_10_721", "85", 0).
exit("Togliatti_10_721", "85", 135).
enter("Togliatti_10_721", "72[0]", 135).
exit("Togliatti_10_721", "72[0]", 245).
enter("Togliatti_10_721", "72[1]", 245).
exit("Togliatti_10_721", "72[1]", 285).
enter("Togliatti_10_721", "69", 285).
exit("Togliatti_10_721", "69", 370).
enter("Togliatti_10_721", "161", 370).
exit("Togliatti_10_721", "161", 455).
enter("Togliatti_10_721", "194", 455).
exit("Togliatti_10_721", "194", 475).
enter("Togliatti_10_721", "91", 475).
exit("Togliatti_10_721", "91", 480).
enter("Togliatti_10_721", "186", 480).
exit("Togliatti_10_721", "186", 510).
enter("Togliatti_10_721", "[109[0]|109[1][0]+20003|109[1][1]]", 510).
exit("Togliatti_10_721", "[109[0]|109[1][0]+20003|109[1][1]]", 575).
enter("Togliatti_10_721", "[116|46]", 575).
exit("Togliatti_10_721", "[116|46]", 765).
enter("Togliatti_10_721", "201", 765).
exit("Togliatti_10_721", "201", 855).
enter("Togliatti_10_721", "201c", 855).
exit("Togliatti_10_721", "201c", 920).
enter("Togliatti_10_721", "204a[0]", 920).
exit("Togliatti_10_721", "204a[0]", 1650).
enter("Togliatti_10_721", "204b[0]", 1650).
exit("Togliatti_10_721", "204b[0]", 1810).
enter("Togliatti_10_721", "204[1][0]", 1810).
exit("Togliatti_10_721", "204[1][0]", 1860).
enter("Togliatti_10_721", "204[1][1]", 1860).
exit("Togliatti_10_721", "204[1][1]", 2615).
origin("Audinot_7_150", "131").
enter("Audinot_7_150", "131", 0).
exit("Audinot_7_150", "131", 30).
enter("Audinot_7_150", "119", 30).
exit("Audinot_7_150", "119", 50).
enter("Audinot_7_150", "[116|46]", 50).
exit("Audinot_7_150", "[116|46]", 115).
enter("Audinot_7_150", "113", 115).
exit("Audinot_7_150", "113", 200).
enter("Audinot_7_150", "209", 200).
exit("Audinot_7_150", "209", 730).
origin("Togliatti_10_616", "85").
enter("Togliatti_10_616", "85", 0).
exit("Togliatti_10_616", "85", 60).
enter("Togliatti_10_616", "72[0]", 60).
exit("Togliatti_10_616", "72[0]", 135).
enter("Togliatti_10_616", "72[1]", 135).
exit("Togliatti_10_616", "72[1]", 175).
enter("Togliatti_10_616", "69", 175).
exit("Togliatti_10_616", "69", 270).
enter("Togliatti_10_616", "161", 270).
exit("Togliatti_10_616", "161", 295).
enter("Togliatti_10_616", "122", 295).
exit("Togliatti_10_616", "122", 395).
enter("Togliatti_10_616", "1b", 395).
exit("Togliatti_10_616", "1b", 455).
enter("Togliatti_10_616", "1", 455).
exit("Togliatti_10_616", "1", 490).
enter("Togliatti_10_616", "204a[0]", 490).
exit("Togliatti_10_616", "204a[0]", 610).
enter("Togliatti_10_616", "204b[0]", 610).
exit("Togliatti_10_616", "204b[0]", 615).
enter("Togliatti_10_616", "204[1][0]", 615).
exit("Togliatti_10_616", "204[1][0]", 650).
enter("Togliatti_10_616", "204[1][1]", 650).
exit("Togliatti_10_616", "204[1][1]", 685).
origin("Costa_70_1313", "[116|46]").
enter("Costa_70_1313", "[116|46]", 0).
exit("Costa_70_1313", "[116|46]", 95).
enter("Costa_70_1313", "113", 95).
exit("Costa_70_1313", "113", 165).
enter("Costa_70_1313", "209", 165).
exit("Costa_70_1313", "209", 345).
origin("Pepoli_12_1663", "180").
enter("Pepoli_12_1663", "180", 0).
exit("Pepoli_12_1663", "180", 95).
origin("Togliatti_10_378", "122").
enter("Togliatti_10_378", "122", 0).
exit("Togliatti_10_378", "122", 55).
enter("Togliatti_10_378", "1b", 55).
exit("Togliatti_10_378", "1b", 115).
enter("Togliatti_10_378", "1", 115).
exit("Togliatti_10_378", "1", 150).
enter("Togliatti_10_378", "204a[0]", 150).
exit("Togliatti_10_378", "204a[0]", 270).
enter("Togliatti_10_378", "204b[0]", 270).
exit("Togliatti_10_378", "204b[0]", 275).
enter("Togliatti_10_378", "204[1][0]", 275).
exit("Togliatti_10_378", "204[1][0]", 310).
enter("Togliatti_10_378", "204[1][1]", 310).
exit("Togliatti_10_378", "204[1][1]", 345).
origin("Costa_200_1224", "204a[0]").
enter("Costa_200_1224", "204a[0]", 0).
exit("Costa_200_1224", "204a[0]", 120).
enter("Costa_200_1224", "204b[0]", 120).
exit("Costa_200_1224", "204b[0]", 125).
enter("Costa_200_1224", "204[1][0]", 125).
exit("Costa_200_1224", "204[1][0]", 160).
enter("Costa_200_1224", "204[1][1]", 160).
exit("Costa_200_1224", "204[1][1]", 195).
origin("Togliatti_10_478", "69").
enter("Togliatti_10_478", "69", 0).
exit("Togliatti_10_478", "69", 95).
enter("Togliatti_10_478", "161", 95).
exit("Togliatti_10_478", "161", 145).
enter("Togliatti_10_478", "122", 145).
exit("Togliatti_10_478", "122", 200).
enter("Togliatti_10_478", "1b", 200).
exit("Togliatti_10_478", "1b", 260).
enter("Togliatti_10_478", "1", 260).
exit("Togliatti_10_478", "1", 295).
enter("Togliatti_10_478", "204a[0]", 295).
exit("Togliatti_10_478", "204a[0]", 415).
enter("Togliatti_10_478", "204b[0]", 415).
exit("Togliatti_10_478", "204b[0]", 420).
enter("Togliatti_10_478", "204[1][0]", 420).
exit("Togliatti_10_478", "204[1][0]", 455).
enter("Togliatti_10_478", "204[1][1]", 455).
exit("Togliatti_10_478", "204[1][1]", 490).
origin("Togliatti_5_704", "61").
enter("Togliatti_5_704", "61", 0).
exit("Togliatti_5_704", "61", 20).
enter("Togliatti_5_704", "58[0]", 20).
exit("Togliatti_5_704", "58[0]", 25).
enter("Togliatti_5_704", "58[1]", 25).
exit("Togliatti_5_704", "58[1]", 40).
enter("Togliatti_5_704", "[200|60]", 40).
exit("Togliatti_5_704", "[200|60]", 655).
origin("Costa_200_978", "204a[0]").
enter("Costa_200_978", "204a[0]", 0).
exit("Costa_200_978", "204a[0]", 120).
enter("Costa_200_978", "204b[0]", 120).
exit("Costa_200_978", "204b[0]", 125).
enter("Costa_200_978", "204[1][0]", 125).
exit("Costa_200_978", "204[1][0]", 160).
enter("Costa_200_978", "204[1][1]", 160).
exit("Costa_200_978", "204[1][1]", 195).
origin("Togliatti_10_628", "85").
enter("Togliatti_10_628", "85", 0).
exit("Togliatti_10_628", "85", 70).
enter("Togliatti_10_628", "72[0]", 70).
exit("Togliatti_10_628", "72[0]", 180).
enter("Togliatti_10_628", "72[1]", 180).
exit("Togliatti_10_628", "72[1]", 220).
enter("Togliatti_10_628", "69", 220).
exit("Togliatti_10_628", "69", 315).
enter("Togliatti_10_628", "161", 315).
exit("Togliatti_10_628", "161", 340).
enter("Togliatti_10_628", "122", 340).
exit("Togliatti_10_628", "122", 440).
enter("Togliatti_10_628", "1b", 440).
exit("Togliatti_10_628", "1b", 500).
enter("Togliatti_10_628", "1", 500).
exit("Togliatti_10_628", "1", 535).
enter("Togliatti_10_628", "204a[0]", 535).
exit("Togliatti_10_628", "204a[0]", 655).
enter("Togliatti_10_628", "204b[0]", 655).
exit("Togliatti_10_628", "204b[0]", 660).
enter("Togliatti_10_628", "204[1][0]", 660).
exit("Togliatti_10_628", "204[1][0]", 695).
enter("Togliatti_10_628", "204[1][1]", 695).
exit("Togliatti_10_628", "204[1][1]", 730).
origin("Vittorio_Veneto_2_593", "224[0]").
enter("Vittorio_Veneto_2_593", "224[0]", 0).
exit("Vittorio_Veneto_2_593", "224[0]", 140).
enter("Vittorio_Veneto_2_593", "224[1]", 140).
exit("Vittorio_Veneto_2_593", "224[1]", 200).
enter("Vittorio_Veneto_2_593", "[181|18]", 200).
exit("Vittorio_Veneto_2_593", "[181|18]", 275).
enter("Vittorio_Veneto_2_593", "[17|71]", 275).
exit("Vittorio_Veneto_2_593", "[17|71]", 330).
enter("Vittorio_Veneto_2_593", "67", 330).
exit("Vittorio_Veneto_2_593", "67", 340).
enter("Vittorio_Veneto_2_593", "[80|127]", 340).
exit("Vittorio_Veneto_2_593", "[80|127]", 375).
enter("Vittorio_Veneto_2_593", "(77[1][0])", 375).
exit("Vittorio_Veneto_2_593", "(77[1][0])", 395).
enter("Vittorio_Veneto_2_593", "77[1][1]", 395).
exit("Vittorio_Veneto_2_593", "77[1][1]", 435).
origin("Audinot_3_129", "131").
enter("Audinot_3_129", "131", 0).
exit("Audinot_3_129", "131", 150).
enter("Audinot_3_129", "65", 150).
exit("Audinot_3_129", "65", 195).
enter("Audinot_3_129", "57[0]", 195).
exit("Audinot_3_129", "57[0]", 280).
enter("Audinot_3_129", "57[1]", 280).
exit("Audinot_3_129", "57[1]", 295).
enter("Audinot_3_129", "62", 295).
exit("Audinot_3_129", "62", 385).
enter("Audinot_3_129", "159", 385).
exit("Audinot_3_129", "159", 490).
enter("Audinot_3_129", "42", 490).
exit("Audinot_3_129", "42", 510).
enter("Audinot_3_129", "39", 510).
exit("Audinot_3_129", "39", 530).
enter("Audinot_3_129", "35", 530).
exit("Audinot_3_129", "35", 585).
enter("Audinot_3_129", "38", 585).
exit("Audinot_3_129", "38", 645).
enter("Audinot_3_129", "15", 645).
exit("Audinot_3_129", "15", 720).
enter("Audinot_3_129", "14", 720).
exit("Audinot_3_129", "14", 760).
origin("Costa_200_1327", "122").
enter("Costa_200_1327", "122", 0).
exit("Costa_200_1327", "122", 100).
enter("Costa_200_1327", "1b", 100).
exit("Costa_200_1327", "1b", 160).
enter("Costa_200_1327", "1", 160).
exit("Costa_200_1327", "1", 195).
enter("Costa_200_1327", "204a[0]", 195).
exit("Costa_200_1327", "204a[0]", 315).
enter("Costa_200_1327", "204b[0]", 315).
exit("Costa_200_1327", "204b[0]", 320).
enter("Costa_200_1327", "204[1][0]", 320).
exit("Costa_200_1327", "204[1][0]", 355).
enter("Costa_200_1327", "204[1][1]", 355).
exit("Costa_200_1327", "204[1][1]", 390).
origin("Costa_200_1257", "1b").
enter("Costa_200_1257", "1b", 0).
exit("Costa_200_1257", "1b", 60).
enter("Costa_200_1257", "1", 60).
exit("Costa_200_1257", "1", 95).
enter("Costa_200_1257", "204a[0]", 95).
exit("Costa_200_1257", "204a[0]", 215).
enter("Costa_200_1257", "204b[0]", 215).
exit("Costa_200_1257", "204b[0]", 220).
enter("Costa_200_1257", "204[1][0]", 220).
exit("Costa_200_1257", "204[1][0]", 255).
enter("Costa_200_1257", "204[1][1]", 255).
exit("Costa_200_1257", "204[1][1]", 290).
origin("Costa_70_1183", "120").
enter("Costa_70_1183", "120", 0).
exit("Costa_70_1183", "120", 20).
enter("Costa_70_1183", "117", 20).
exit("Costa_70_1183", "117", 135).
enter("Costa_70_1183", "209", 135).
exit("Costa_70_1183", "209", 305).
origin("Togliatti_71_708", "69").
enter("Togliatti_71_708", "69", 0).
exit("Togliatti_71_708", "69", 90).
enter("Togliatti_71_708", "161", 90).
exit("Togliatti_71_708", "161", 120).
enter("Togliatti_71_708", "122", 120).
exit("Togliatti_71_708", "122", 175).
enter("Togliatti_71_708", "[3|2]", 175).
exit("Togliatti_71_708", "[3|2]", 210).
enter("Togliatti_71_708", "[202|34]", 210).
exit("Togliatti_71_708", "[202|34]", 260).
enter("Togliatti_71_708", "113", 260).
exit("Togliatti_71_708", "113", 300).
enter("Togliatti_71_708", "209", 300).
exit("Togliatti_71_708", "209", 685).
origin("Audinot_12_145", "131").
enter("Audinot_12_145", "131", 0).
exit("Audinot_12_145", "131", 35).
enter("Audinot_12_145", "65", 35).
exit("Audinot_12_145", "65", 85).
enter("Audinot_12_145", "57[0]", 85).
exit("Audinot_12_145", "57[0]", 125).
enter("Audinot_12_145", "57[1]", 125).
exit("Audinot_12_145", "57[1]", 160).
enter("Audinot_12_145", "62", 160).
exit("Audinot_12_145", "62", 260).
enter("Audinot_12_145", "159", 260).
exit("Audinot_12_145", "159", 340).
enter("Audinot_12_145", "42", 340).
exit("Audinot_12_145", "42", 395).
enter("Audinot_12_145", "39", 395).
exit("Audinot_12_145", "39", 400).
enter("Audinot_12_145", "35", 400).
exit("Audinot_12_145", "35", 465).
enter("Audinot_12_145", "38", 465).
exit("Audinot_12_145", "38", 525).
enter("Audinot_12_145", "15", 525).
exit("Audinot_12_145", "15", 570).
enter("Audinot_12_145", "24", 570).
exit("Audinot_12_145", "24", 590).
enter("Audinot_12_145", "[22|59]", 590).
exit("Audinot_12_145", "[22|59]", 605).
enter("Audinot_12_145", "(53cd|53[0]|53[1][0])", 605).
exit("Audinot_12_145", "(53cd|53[0]|53[1][0])", 680).
enter("Audinot_12_145", "79", 680).
exit("Audinot_12_145", "79", 705).
enter("Audinot_12_145", "[68|11]", 705).
exit("Audinot_12_145", "[68|11]", 750).
enter("Audinot_12_145", "84", 750).
exit("Audinot_12_145", "84", 770).
enter("Audinot_12_145", "180", 770).
exit("Audinot_12_145", "180", 860).
origin("Pepoli_12_1775", "38").
enter("Pepoli_12_1775", "38", 0).
exit("Pepoli_12_1775", "38", 60).
enter("Pepoli_12_1775", "50", 60).
exit("Pepoli_12_1775", "50", 120).
enter("Pepoli_12_1775", "19", 120).
exit("Pepoli_12_1775", "19", 155).
enter("Pepoli_12_1775", "[22|59]", 155).
exit("Pepoli_12_1775", "[22|59]", 225).
enter("Pepoli_12_1775", "(53cd|53[0]|53[1][0])", 225).
exit("Pepoli_12_1775", "(53cd|53[0]|53[1][0])", 245).
enter("Pepoli_12_1775", "79", 245).
exit("Pepoli_12_1775", "79", 315).
enter("Pepoli_12_1775", "[68|11]", 315).
exit("Pepoli_12_1775", "[68|11]", 370).
enter("Pepoli_12_1775", "84", 370).
exit("Pepoli_12_1775", "84", 390).
enter("Pepoli_12_1775", "180", 390).
exit("Pepoli_12_1775", "180", 485).
origin("Togliatti_10_552", "85").
enter("Togliatti_10_552", "85", 0).
exit("Togliatti_10_552", "85", 70).
enter("Togliatti_10_552", "72[0]", 70).
exit("Togliatti_10_552", "72[0]", 320).
enter("Togliatti_10_552", "72[1]", 320).
exit("Togliatti_10_552", "72[1]", 405).
enter("Togliatti_10_552", "69", 405).
exit("Togliatti_10_552", "69", 455).
enter("Togliatti_10_552", "161", 455).
exit("Togliatti_10_552", "161", 590).
enter("Togliatti_10_552", "122", 590).
exit("Togliatti_10_552", "122", 615).
enter("Togliatti_10_552", "1b", 615).
exit("Togliatti_10_552", "1b", 700).
enter("Togliatti_10_552", "1", 700).
exit("Togliatti_10_552", "1", 740).
enter("Togliatti_10_552", "204a[0]", 740).
exit("Togliatti_10_552", "204a[0]", 795).
enter("Togliatti_10_552", "204b[0]", 795).
exit("Togliatti_10_552", "204b[0]", 830).
enter("Togliatti_10_552", "204[1][0]", 830).
exit("Togliatti_10_552", "204[1][0]", 875).
enter("Togliatti_10_552", "204[1][1]", 875).
exit("Togliatti_10_552", "204[1][1]", 1365).
origin("Vittorio_Veneto_10_448", "161").
enter("Vittorio_Veneto_10_448", "161", 0).
exit("Vittorio_Veneto_10_448", "161", 50).
enter("Vittorio_Veneto_10_448", "122", 50).
exit("Vittorio_Veneto_10_448", "122", 150).
enter("Vittorio_Veneto_10_448", "1b", 150).
exit("Vittorio_Veneto_10_448", "1b", 210).
enter("Vittorio_Veneto_10_448", "1", 210).
exit("Vittorio_Veneto_10_448", "1", 245).
enter("Vittorio_Veneto_10_448", "204a[0]", 245).
exit("Vittorio_Veneto_10_448", "204a[0]", 365).
enter("Vittorio_Veneto_10_448", "204b[0]", 365).
exit("Vittorio_Veneto_10_448", "204b[0]", 370).
enter("Vittorio_Veneto_10_448", "204[1][0]", 370).
exit("Vittorio_Veneto_10_448", "204[1][0]", 405).
enter("Vittorio_Veneto_10_448", "204[1][1]", 405).
exit("Vittorio_Veneto_10_448", "204[1][1]", 440).
origin("Togliatti_10_555", "85").
enter("Togliatti_10_555", "85", 0).
exit("Togliatti_10_555", "85", 70).
enter("Togliatti_10_555", "72[0]", 70).
exit("Togliatti_10_555", "72[0]", 145).
enter("Togliatti_10_555", "72[1]", 145).
exit("Togliatti_10_555", "72[1]", 185).
enter("Togliatti_10_555", "69", 185).
exit("Togliatti_10_555", "69", 280).
enter("Togliatti_10_555", "161", 280).
exit("Togliatti_10_555", "161", 330).
enter("Togliatti_10_555", "122", 330).
exit("Togliatti_10_555", "122", 430).
enter("Togliatti_10_555", "1b", 430).
exit("Togliatti_10_555", "1b", 490).
enter("Togliatti_10_555", "1", 490).
exit("Togliatti_10_555", "1", 525).
enter("Togliatti_10_555", "204a[0]", 525).
exit("Togliatti_10_555", "204a[0]", 645).
enter("Togliatti_10_555", "204b[0]", 645).
exit("Togliatti_10_555", "204b[0]", 650).
enter("Togliatti_10_555", "204[1][0]", 650).
exit("Togliatti_10_555", "204[1][0]", 685).
enter("Togliatti_10_555", "204[1][1]", 685).
exit("Togliatti_10_555", "204[1][1]", 720).
origin("XXI_Aprile_93_310", "122").
enter("XXI_Aprile_93_310", "122", 0).
exit("XXI_Aprile_93_310", "122", 55).
enter("XXI_Aprile_93_310", "1b", 55).
exit("XXI_Aprile_93_310", "1b", 115).
enter("XXI_Aprile_93_310", "1", 115).
exit("XXI_Aprile_93_310", "1", 150).
enter("XXI_Aprile_93_310", "204a[0]", 150).
exit("XXI_Aprile_93_310", "204a[0]", 270).
enter("XXI_Aprile_93_310", "204b[0]", 270).
exit("XXI_Aprile_93_310", "204b[0]", 275).
enter("XXI_Aprile_93_310", "54", 275).
exit("XXI_Aprile_93_310", "54", 300).
origin("Togliatti_10_713", "85").
enter("Togliatti_10_713", "85", 0).
exit("Togliatti_10_713", "85", 135).
enter("Togliatti_10_713", "72[0]", 135).
exit("Togliatti_10_713", "72[0]", 250).
enter("Togliatti_10_713", "72[1]", 250).
exit("Togliatti_10_713", "72[1]", 565).
enter("Togliatti_10_713", "69", 565).
exit("Togliatti_10_713", "69", 715).
enter("Togliatti_10_713", "161", 715).
exit("Togliatti_10_713", "161", 740).
enter("Togliatti_10_713", "122", 740).
exit("Togliatti_10_713", "122", 940).
enter("Togliatti_10_713", "1b", 940).
exit("Togliatti_10_713", "1b", 2305).
enter("Togliatti_10_713", "1", 2305).
exit("Togliatti_10_713", "1", 2340).
enter("Togliatti_10_713", "204a[0]", 2340).
exit("Togliatti_10_713", "204a[0]", 2475).
enter("Togliatti_10_713", "204b[0]", 2475).
exit("Togliatti_10_713", "204b[0]", 2485).
enter("Togliatti_10_713", "204[1][0]", 2485).
exit("Togliatti_10_713", "204[1][0]", 2520).
enter("Togliatti_10_713", "204[1][1]", 2520).
exit("Togliatti_10_713", "204[1][1]", 2700).
origin("Vittorio_Veneto_10_489", "69").
enter("Vittorio_Veneto_10_489", "69", 0).
exit("Vittorio_Veneto_10_489", "69", 95).
enter("Vittorio_Veneto_10_489", "161", 95).
exit("Vittorio_Veneto_10_489", "161", 145).
enter("Vittorio_Veneto_10_489", "122", 145).
exit("Vittorio_Veneto_10_489", "122", 245).
enter("Vittorio_Veneto_10_489", "1b", 245).
exit("Vittorio_Veneto_10_489", "1b", 305).
enter("Vittorio_Veneto_10_489", "1", 305).
exit("Vittorio_Veneto_10_489", "1", 340).
enter("Vittorio_Veneto_10_489", "204a[0]", 340).
exit("Vittorio_Veneto_10_489", "204a[0]", 460).
enter("Vittorio_Veneto_10_489", "204b[0]", 460).
exit("Vittorio_Veneto_10_489", "204b[0]", 465).
enter("Vittorio_Veneto_10_489", "204[1][0]", 465).
exit("Vittorio_Veneto_10_489", "204[1][0]", 500).
enter("Vittorio_Veneto_10_489", "204[1][1]", 500).
exit("Vittorio_Veneto_10_489", "204[1][1]", 535).
origin("Audinot_5_124", "131").
enter("Audinot_5_124", "131", 0).
exit("Audinot_5_124", "131", 150).
enter("Audinot_5_124", "65", 150).
exit("Audinot_5_124", "65", 195).
enter("Audinot_5_124", "[200|60]", 195).
exit("Audinot_5_124", "[200|60]", 330).
origin("Togliatti_10_641", "[89[0]|20002+89[1][0]|89[1][1]]").
enter("Togliatti_10_641", "[89[0]|20002+89[1][0]|89[1][1]]", 0).
exit("Togliatti_10_641", "[89[0]|20002+89[1][0]|89[1][1]]", 20).
enter("Togliatti_10_641", "91", 20).
exit("Togliatti_10_641", "91", 45).
enter("Togliatti_10_641", "186", 45).
exit("Togliatti_10_641", "186", 55).
enter("Togliatti_10_641", "[109[0]|109[1][0]+20003|109[1][1]]", 55).
exit("Togliatti_10_641", "[109[0]|109[1][0]+20003|109[1][1]]", 75).
enter("Togliatti_10_641", "[116|46]", 75).
exit("Togliatti_10_641", "[116|46]", 135).
enter("Togliatti_10_641", "201", 135).
exit("Togliatti_10_641", "201", 185).
enter("Togliatti_10_641", "201c", 185).
exit("Togliatti_10_641", "201c", 245).
enter("Togliatti_10_641", "204a[0]", 245).
exit("Togliatti_10_641", "204a[0]", 350).
enter("Togliatti_10_641", "204b[0]", 350).
exit("Togliatti_10_641", "204b[0]", 1155).
enter("Togliatti_10_641", "204[1][0]", 1155).
exit("Togliatti_10_641", "204[1][0]", 1235).
enter("Togliatti_10_641", "204[1][1]", 1235).
exit("Togliatti_10_641", "204[1][1]", 1800).
origin("Vittorio_Veneto_10_367", "122").
enter("Vittorio_Veneto_10_367", "122", 0).
exit("Vittorio_Veneto_10_367", "122", 55).
enter("Vittorio_Veneto_10_367", "1b", 55).
exit("Vittorio_Veneto_10_367", "1b", 115).
enter("Vittorio_Veneto_10_367", "1", 115).
exit("Vittorio_Veneto_10_367", "1", 150).
enter("Vittorio_Veneto_10_367", "204a[0]", 150).
exit("Vittorio_Veneto_10_367", "204a[0]", 270).
enter("Vittorio_Veneto_10_367", "204b[0]", 270).
exit("Vittorio_Veneto_10_367", "204b[0]", 275).
enter("Vittorio_Veneto_10_367", "204[1][0]", 275).
exit("Vittorio_Veneto_10_367", "204[1][0]", 310).
enter("Vittorio_Veneto_10_367", "204[1][1]", 310).
exit("Vittorio_Veneto_10_367", "204[1][1]", 345).
origin("Togliatti_9_703", "85").
enter("Togliatti_9_703", "85", 0).
exit("Togliatti_9_703", "85", 60).
enter("Togliatti_9_703", "72[0]", 60).
exit("Togliatti_9_703", "72[0]", 135).
enter("Togliatti_9_703", "72[1]", 135).
exit("Togliatti_9_703", "72[1]", 175).
enter("Togliatti_9_703", "69", 175).
exit("Togliatti_9_703", "69", 270).
enter("Togliatti_9_703", "161", 270).
exit("Togliatti_9_703", "161", 295).
enter("Togliatti_9_703", "122", 295).
exit("Togliatti_9_703", "122", 395).
enter("Togliatti_9_703", "1b", 395).
exit("Togliatti_9_703", "1b", 455).
enter("Togliatti_9_703", "1", 455).
exit("Togliatti_9_703", "1", 490).
enter("Togliatti_9_703", "204a[0]", 490).
exit("Togliatti_9_703", "204a[0]", 610).
enter("Togliatti_9_703", "204b[0]", 610).
exit("Togliatti_9_703", "204b[0]", 615).
enter("Togliatti_9_703", "54", 615).
exit("Togliatti_9_703", "54", 640).
origin("Togliatti_10_634", "204a[0]").
enter("Togliatti_10_634", "204a[0]", 0).
exit("Togliatti_10_634", "204a[0]", 1325).
enter("Togliatti_10_634", "204b[0]", 1325).
exit("Togliatti_10_634", "204b[0]", 1410).
enter("Togliatti_10_634", "204[1][0]", 1410).
exit("Togliatti_10_634", "204[1][0]", 1480).
enter("Togliatti_10_634", "204[1][1]", 1480).
exit("Togliatti_10_634", "204[1][1]", 1690).
origin("Togliatti_9_575", "204a[0]").
enter("Togliatti_9_575", "204a[0]", 0).
exit("Togliatti_9_575", "204a[0]", 245).
enter("Togliatti_9_575", "204b[0]", 245).
exit("Togliatti_9_575", "204b[0]", 250).
enter("Togliatti_9_575", "54", 250).
exit("Togliatti_9_575", "54", 880).
origin("Costa_200_1362", "161").
enter("Costa_200_1362", "161", 0).
exit("Costa_200_1362", "161", 50).
enter("Costa_200_1362", "122", 50).
exit("Costa_200_1362", "122", 150).
enter("Costa_200_1362", "1b", 150).
exit("Costa_200_1362", "1b", 210).
enter("Costa_200_1362", "1", 210).
exit("Costa_200_1362", "1", 245).
enter("Costa_200_1362", "204a[0]", 245).
exit("Costa_200_1362", "204a[0]", 365).
enter("Costa_200_1362", "204b[0]", 365).
exit("Costa_200_1362", "204b[0]", 370).
enter("Costa_200_1362", "204[1][0]", 370).
exit("Costa_200_1362", "204[1][0]", 405).
enter("Costa_200_1362", "204[1][1]", 405).
exit("Costa_200_1362", "204[1][1]", 440).
origin("Costa_70_1330", "[116|46]").
enter("Costa_70_1330", "[116|46]", 0).
exit("Costa_70_1330", "[116|46]", 65).
enter("Costa_70_1330", "113", 65).
exit("Costa_70_1330", "113", 135).
enter("Costa_70_1330", "209", 135).
exit("Costa_70_1330", "209", 185).
origin("Costa_50_1364", "186").
enter("Costa_50_1364", "186", 0).
exit("Costa_50_1364", "186", 15).
enter("Costa_50_1364", "[109[0]|109[1][0]+20003|109[1][1]]", 15).
exit("Costa_50_1364", "[109[0]|109[1][0]+20003|109[1][1]]", 25).
enter("Costa_50_1364", "120", 25).
exit("Costa_50_1364", "120", 40).
enter("Costa_50_1364", "65", 40).
exit("Costa_50_1364", "65", 105).
enter("Costa_50_1364", "[200|60]", 105).
exit("Costa_50_1364", "[200|60]", 630).
origin("Togliatti_3_2179", "194").
enter("Togliatti_3_2179", "194", 0).
exit("Togliatti_3_2179", "194", 50).
enter("Togliatti_3_2179", "91", 50).
exit("Togliatti_3_2179", "91", 155).
enter("Togliatti_3_2179", "173", 155).
exit("Togliatti_3_2179", "173", 340).
enter("Togliatti_3_2179", "62", 340).
exit("Togliatti_3_2179", "62", 550).
enter("Togliatti_3_2179", "159", 550).
exit("Togliatti_3_2179", "159", 570).
enter("Togliatti_3_2179", "42", 570).
exit("Togliatti_3_2179", "42", 580).
enter("Togliatti_3_2179", "39", 580).
exit("Togliatti_3_2179", "39", 800).
enter("Togliatti_3_2179", "35", 800).
exit("Togliatti_3_2179", "35", 810).
enter("Togliatti_3_2179", "38", 810).
exit("Togliatti_3_2179", "38", 825).
enter("Togliatti_3_2179", "33", 825).
exit("Togliatti_3_2179", "33", 905).
enter("Togliatti_3_2179", "10", 905).
exit("Togliatti_3_2179", "10", 2095).
origin("Togliatti_10_488", "72[1]").
enter("Togliatti_10_488", "72[1]", 0).
exit("Togliatti_10_488", "72[1]", 40).
enter("Togliatti_10_488", "69", 40).
exit("Togliatti_10_488", "69", 135).
enter("Togliatti_10_488", "161", 135).
exit("Togliatti_10_488", "161", 185).
enter("Togliatti_10_488", "122", 185).
exit("Togliatti_10_488", "122", 240).
enter("Togliatti_10_488", "1b", 240).
exit("Togliatti_10_488", "1b", 300).
enter("Togliatti_10_488", "1", 300).
exit("Togliatti_10_488", "1", 335).
enter("Togliatti_10_488", "204a[0]", 335).
exit("Togliatti_10_488", "204a[0]", 455).
enter("Togliatti_10_488", "204b[0]", 455).
exit("Togliatti_10_488", "204b[0]", 460).
enter("Togliatti_10_488", "204[1][0]", 460).
exit("Togliatti_10_488", "204[1][0]", 495).
enter("Togliatti_10_488", "204[1][1]", 495).
exit("Togliatti_10_488", "204[1][1]", 530).
origin("Togliatti_11_506", "72[0]").
enter("Togliatti_11_506", "72[0]", 0).
exit("Togliatti_11_506", "72[0]", 670).
enter("Togliatti_11_506", "72[1]", 670).
exit("Togliatti_11_506", "72[1]", 800).
enter("Togliatti_11_506", "69", 800).
exit("Togliatti_11_506", "69", 935).
enter("Togliatti_11_506", "161", 935).
exit("Togliatti_11_506", "161", 965).
enter("Togliatti_11_506", "122", 965).
exit("Togliatti_11_506", "122", 1850).
enter("Togliatti_11_506", "1b", 1850).
exit("Togliatti_11_506", "1b", 2775).
enter("Togliatti_11_506", "1", 2775).
exit("Togliatti_11_506", "1", 2825).
enter("Togliatti_11_506", "204a[0]", 2825).
exit("Togliatti_11_506", "204a[0]", 2875).
enter("Togliatti_11_506", "124", 2875).
exit("Togliatti_11_506", "124", 3195).
origin("Togliatti_71_582", "[116|46]").
enter("Togliatti_71_582", "[116|46]", 0).
exit("Togliatti_71_582", "[116|46]", 45).
enter("Togliatti_71_582", "113", 45).
exit("Togliatti_71_582", "113", 145).
enter("Togliatti_71_582", "209", 145).
exit("Togliatti_71_582", "209", 555).
origin("Vittorio_Veneto_2_486", "[17|71]").
enter("Vittorio_Veneto_2_486", "[17|71]", 0).
exit("Vittorio_Veneto_2_486", "[17|71]", 80).
enter("Vittorio_Veneto_2_486", "67", 80).
exit("Vittorio_Veneto_2_486", "67", 95).
enter("Vittorio_Veneto_2_486", "[80|127]", 95).
exit("Vittorio_Veneto_2_486", "[80|127]", 160).
enter("Vittorio_Veneto_2_486", "(77[1][0])", 160).
exit("Vittorio_Veneto_2_486", "(77[1][0])", 180).
enter("Vittorio_Veneto_2_486", "77[1][1]", 180).
exit("Vittorio_Veneto_2_486", "77[1][1]", 240).
origin("XXI_Aprile_93_189", "122").
enter("XXI_Aprile_93_189", "122", 0).
exit("XXI_Aprile_93_189", "122", 710).
enter("XXI_Aprile_93_189", "1b", 710).
exit("XXI_Aprile_93_189", "1b", 1490).
enter("XXI_Aprile_93_189", "1", 1490).
exit("XXI_Aprile_93_189", "1", 1535).
enter("XXI_Aprile_93_189", "204a[0]", 1535).
exit("XXI_Aprile_93_189", "204a[0]", 1695).
enter("XXI_Aprile_93_189", "204b[0]", 1695).
exit("XXI_Aprile_93_189", "204b[0]", 1710).
enter("XXI_Aprile_93_189", "54", 1710).
exit("XXI_Aprile_93_189", "54", 2535).
origin("XXI_Aprile_102_906", "1b").
enter("XXI_Aprile_102_906", "1b", 0).
exit("XXI_Aprile_102_906", "1b", 60).
enter("XXI_Aprile_102_906", "1", 60).
exit("XXI_Aprile_102_906", "1", 95).
enter("XXI_Aprile_102_906", "204a[0]", 95).
exit("XXI_Aprile_102_906", "204a[0]", 215).
enter("XXI_Aprile_102_906", "204b[0]", 215).
exit("XXI_Aprile_102_906", "204b[0]", 220).
enter("XXI_Aprile_102_906", "204[1][0]", 220).
exit("XXI_Aprile_102_906", "204[1][0]", 255).
enter("XXI_Aprile_102_906", "204[1][1]", 255).
exit("XXI_Aprile_102_906", "204[1][1]", 290).
origin("Togliatti_10_263", "204a[0]").
enter("Togliatti_10_263", "204a[0]", 0).
exit("Togliatti_10_263", "204a[0]", 120).
enter("Togliatti_10_263", "204b[0]", 120).
exit("Togliatti_10_263", "204b[0]", 125).
enter("Togliatti_10_263", "204[1][0]", 125).
exit("Togliatti_10_263", "204[1][0]", 160).
enter("Togliatti_10_263", "204[1][1]", 160).
exit("Togliatti_10_263", "204[1][1]", 195).
origin("Pepoli_2_1797", "35").
enter("Pepoli_2_1797", "35", 0).
exit("Pepoli_2_1797", "35", 55).
enter("Pepoli_2_1797", "38", 55).
exit("Pepoli_2_1797", "38", 115).
enter("Pepoli_2_1797", "50", 115).
exit("Pepoli_2_1797", "50", 175).
enter("Pepoli_2_1797", "19", 175).
exit("Pepoli_2_1797", "19", 210).
enter("Pepoli_2_1797", "[22|59]", 210).
exit("Pepoli_2_1797", "[22|59]", 280).
enter("Pepoli_2_1797", "(53cd|53[0]|53[1][0]|53[1][1][0]|77[1][0])", 280).
exit("Pepoli_2_1797", "(53cd|53[0]|53[1][0]|53[1][1][0]|77[1][0])", 285).
enter("Pepoli_2_1797", "77[1][1]", 285).
exit("Pepoli_2_1797", "77[1][1]", 345).
origin("Costa_50_1284", "120").
enter("Costa_50_1284", "120", 0).
exit("Costa_50_1284", "120", 75).
enter("Costa_50_1284", "65", 75).
exit("Costa_50_1284", "65", 120).
enter("Costa_50_1284", "[200|60]", 120).
exit("Costa_50_1284", "[200|60]", 255).
origin("Togliatti_9_599", "161").
enter("Togliatti_9_599", "161", 0).
exit("Togliatti_9_599", "161", 25).
enter("Togliatti_9_599", "122", 25).
exit("Togliatti_9_599", "122", 740).
enter("Togliatti_9_599", "1b", 740).
exit("Togliatti_9_599", "1b", 1690).
enter("Togliatti_9_599", "1", 1690).
exit("Togliatti_9_599", "1", 1725).
enter("Togliatti_9_599", "204a[0]", 1725).
exit("Togliatti_9_599", "204a[0]", 1830).
enter("Togliatti_9_599", "204b[0]", 1830).
exit("Togliatti_9_599", "204b[0]", 1945).
enter("Togliatti_9_599", "54", 1945).
exit("Togliatti_9_599", "54", 2310).
origin("Togliatti_3_2093", "194").
enter("Togliatti_3_2093", "194", 0).
exit("Togliatti_3_2093", "194", 15).
enter("Togliatti_3_2093", "91", 15).
exit("Togliatti_3_2093", "91", 50).
enter("Togliatti_3_2093", "173", 50).
exit("Togliatti_3_2093", "173", 75).
enter("Togliatti_3_2093", "62", 75).
exit("Togliatti_3_2093", "62", 95).
enter("Togliatti_3_2093", "159", 95).
exit("Togliatti_3_2093", "159", 120).
enter("Togliatti_3_2093", "42", 120).
exit("Togliatti_3_2093", "42", 220).
enter("Togliatti_3_2093", "39", 220).
exit("Togliatti_3_2093", "39", 240).
enter("Togliatti_3_2093", "35", 240).
exit("Togliatti_3_2093", "35", 335).
enter("Togliatti_3_2093", "38", 335).
exit("Togliatti_3_2093", "38", 375).
enter("Togliatti_3_2093", "33", 375).
exit("Togliatti_3_2093", "33", 430).
enter("Togliatti_3_2093", "10", 430).
exit("Togliatti_3_2093", "10", 455).
origin("Audinot_3_91", "62").
enter("Audinot_3_91", "62", 0).
exit("Audinot_3_91", "62", 90).
enter("Audinot_3_91", "159", 90).
exit("Audinot_3_91", "159", 195).
enter("Audinot_3_91", "42", 195).
exit("Audinot_3_91", "42", 215).
enter("Audinot_3_91", "39", 215).
exit("Audinot_3_91", "39", 235).
enter("Audinot_3_91", "35", 235).
exit("Audinot_3_91", "35", 290).
enter("Audinot_3_91", "38", 290).
exit("Audinot_3_91", "38", 350).
enter("Audinot_3_91", "15", 350).
exit("Audinot_3_91", "15", 425).
enter("Audinot_3_91", "14", 425).
exit("Audinot_3_91", "14", 465).
origin("Togliatti_10_581", "85").
enter("Togliatti_10_581", "85", 0).
exit("Togliatti_10_581", "85", 60).
enter("Togliatti_10_581", "72[0]", 60).
exit("Togliatti_10_581", "72[0]", 315).
enter("Togliatti_10_581", "72[1]", 315).
exit("Togliatti_10_581", "72[1]", 670).
enter("Togliatti_10_581", "69", 670).
exit("Togliatti_10_581", "69", 720).
enter("Togliatti_10_581", "161", 720).
exit("Togliatti_10_581", "161", 820).
enter("Togliatti_10_581", "122", 820).
exit("Togliatti_10_581", "122", 1240).
enter("Togliatti_10_581", "1b", 1240).
exit("Togliatti_10_581", "1b", 1420).
enter("Togliatti_10_581", "1", 1420).
exit("Togliatti_10_581", "1", 1585).
enter("Togliatti_10_581", "204a[0]", 1585).
exit("Togliatti_10_581", "204a[0]", 1795).
enter("Togliatti_10_581", "204b[0]", 1795).
exit("Togliatti_10_581", "204b[0]", 2140).
enter("Togliatti_10_581", "204[1][0]", 2140).
exit("Togliatti_10_581", "204[1][0]", 2270).
enter("Togliatti_10_581", "204[1][1]", 2270).
exit("Togliatti_10_581", "204[1][1]", 2620).
origin("Togliatti_10_509", "72[0]").
enter("Togliatti_10_509", "72[0]", 0).
exit("Togliatti_10_509", "72[0]", 75).
enter("Togliatti_10_509", "72[1]", 75).
exit("Togliatti_10_509", "72[1]", 115).
enter("Togliatti_10_509", "69", 115).
exit("Togliatti_10_509", "69", 210).
enter("Togliatti_10_509", "161", 210).
exit("Togliatti_10_509", "161", 260).
enter("Togliatti_10_509", "122", 260).
exit("Togliatti_10_509", "122", 360).
enter("Togliatti_10_509", "1b", 360).
exit("Togliatti_10_509", "1b", 420).
enter("Togliatti_10_509", "1", 420).
exit("Togliatti_10_509", "1", 455).
enter("Togliatti_10_509", "204a[0]", 455).
exit("Togliatti_10_509", "204a[0]", 575).
enter("Togliatti_10_509", "204b[0]", 575).
exit("Togliatti_10_509", "204b[0]", 580).
enter("Togliatti_10_509", "204[1][0]", 580).
exit("Togliatti_10_509", "204[1][0]", 615).
enter("Togliatti_10_509", "204[1][1]", 615).
exit("Togliatti_10_509", "204[1][1]", 650).
origin("Pepoli_2_1855", "159").
enter("Pepoli_2_1855", "159", 0).
exit("Pepoli_2_1855", "159", 105).
enter("Pepoli_2_1855", "42", 105).
exit("Pepoli_2_1855", "42", 125).
enter("Pepoli_2_1855", "39", 125).
exit("Pepoli_2_1855", "39", 145).
enter("Pepoli_2_1855", "35", 145).
exit("Pepoli_2_1855", "35", 200).
enter("Pepoli_2_1855", "38", 200).
exit("Pepoli_2_1855", "38", 260).
enter("Pepoli_2_1855", "50", 260).
exit("Pepoli_2_1855", "50", 320).
enter("Pepoli_2_1855", "19", 320).
exit("Pepoli_2_1855", "19", 355).
enter("Pepoli_2_1855", "[22|59]", 355).
exit("Pepoli_2_1855", "[22|59]", 425).
enter("Pepoli_2_1855", "(53cd|53[0]|53[1][0]|53[1][1][0]|77[1][0])", 425).
exit("Pepoli_2_1855", "(53cd|53[0]|53[1][0]|53[1][1][0]|77[1][0])", 435).
enter("Pepoli_2_1855", "77[1][1]", 435).
exit("Pepoli_2_1855", "77[1][1]", 495).
origin("Togliatti_10_614", "161").
enter("Togliatti_10_614", "161", 0).
exit("Togliatti_10_614", "161", 20).
enter("Togliatti_10_614", "122", 20).
exit("Togliatti_10_614", "122", 70).
enter("Togliatti_10_614", "1b", 70).
exit("Togliatti_10_614", "1b", 425).
enter("Togliatti_10_614", "1", 425).
exit("Togliatti_10_614", "1", 470).
enter("Togliatti_10_614", "204a[0]", 470).
exit("Togliatti_10_614", "204a[0]", 615).
enter("Togliatti_10_614", "204b[0]", 615).
exit("Togliatti_10_614", "204b[0]", 1635).
enter("Togliatti_10_614", "204[1][0]", 1635).
exit("Togliatti_10_614", "204[1][0]", 1680).
enter("Togliatti_10_614", "204[1][1]", 1680).
exit("Togliatti_10_614", "204[1][1]", 1830).
origin("Vittorio_Veneto_2_477", "77[1][1]").
enter("Vittorio_Veneto_2_477", "77[1][1]", 0).
exit("Vittorio_Veneto_2_477", "77[1][1]", 40).
origin("Vittorio_Veneto_2_516", "224[1]").
enter("Vittorio_Veneto_2_516", "224[1]", 0).
exit("Vittorio_Veneto_2_516", "224[1]", 60).
enter("Vittorio_Veneto_2_516", "[181|18]", 60).
exit("Vittorio_Veneto_2_516", "[181|18]", 135).
enter("Vittorio_Veneto_2_516", "[17|71]", 135).
exit("Vittorio_Veneto_2_516", "[17|71]", 215).
enter("Vittorio_Veneto_2_516", "67", 215).
exit("Vittorio_Veneto_2_516", "67", 230).
enter("Vittorio_Veneto_2_516", "[80|127]", 230).
exit("Vittorio_Veneto_2_516", "[80|127]", 295).
enter("Vittorio_Veneto_2_516", "(77[1][0])", 295).
exit("Vittorio_Veneto_2_516", "(77[1][0])", 315).
enter("Vittorio_Veneto_2_516", "77[1][1]", 315).
exit("Vittorio_Veneto_2_516", "77[1][1]", 375).
origin("XXI_Aprile_92_213", "122").
enter("XXI_Aprile_92_213", "122", 0).
exit("XXI_Aprile_92_213", "122", 55).
enter("XXI_Aprile_92_213", "1b", 55).
exit("XXI_Aprile_92_213", "1b", 115).
enter("XXI_Aprile_92_213", "1", 115).
exit("XXI_Aprile_92_213", "1", 150).
enter("XXI_Aprile_92_213", "204a[0]", 150).
exit("XXI_Aprile_92_213", "204a[0]", 270).
enter("XXI_Aprile_92_213", "204b[0]", 270).
exit("XXI_Aprile_92_213", "204b[0]", 275).
enter("XXI_Aprile_92_213", "54", 275).
exit("XXI_Aprile_92_213", "54", 300).
origin("Costa_200_197", "122").
enter("Costa_200_197", "122", 0).
exit("Costa_200_197", "122", 30).
enter("Costa_200_197", "1b", 30).
exit("Costa_200_197", "1b", 90).
enter("Costa_200_197", "1", 90).
exit("Costa_200_197", "1", 125).
enter("Costa_200_197", "204a[0]", 125).
exit("Costa_200_197", "204a[0]", 245).
enter("Costa_200_197", "204b[0]", 245).
exit("Costa_200_197", "204b[0]", 250).
enter("Costa_200_197", "204[1][0]", 250).
exit("Costa_200_197", "204[1][0]", 285).
enter("Costa_200_197", "204[1][1]", 285).
exit("Costa_200_197", "204[1][1]", 320).
origin("Costa_70_1373", "[89[0]|20002+89[1][0]|89[1][1]]").
enter("Costa_70_1373", "[89[0]|20002+89[1][0]|89[1][1]]", 0).
exit("Costa_70_1373", "[89[0]|20002+89[1][0]|89[1][1]]", 75).
enter("Costa_70_1373", "91", 75).
exit("Costa_70_1373", "91", 95).
enter("Costa_70_1373", "186", 95).
exit("Costa_70_1373", "186", 125).
enter("Costa_70_1373", "[109[0]|109[1][0]+20003|109[1][1]]", 125).
exit("Costa_70_1373", "[109[0]|109[1][0]+20003|109[1][1]]", 160).
enter("Costa_70_1373", "[116|46]", 160).
exit("Costa_70_1373", "[116|46]", 225).
enter("Costa_70_1373", "113", 225).
exit("Costa_70_1373", "113", 295).
enter("Costa_70_1373", "209", 295).
exit("Costa_70_1373", "209", 345).
origin("Audinot_10_111", "119").
enter("Audinot_10_111", "119", 0).
exit("Audinot_10_111", "119", 20).
enter("Audinot_10_111", "[116|46]", 20).
exit("Audinot_10_111", "[116|46]", 115).
enter("Audinot_10_111", "201", 115).
exit("Audinot_10_111", "201", 250).
enter("Audinot_10_111", "201c", 250).
exit("Audinot_10_111", "201c", 285).
enter("Audinot_10_111", "204a[0]", 285).
exit("Audinot_10_111", "204a[0]", 405).
enter("Audinot_10_111", "204b[0]", 405).
exit("Audinot_10_111", "204b[0]", 410).
enter("Audinot_10_111", "204[1][0]", 410).
exit("Audinot_10_111", "204[1][0]", 445).
enter("Audinot_10_111", "204[1][1]", 445).
exit("Audinot_10_111", "204[1][1]", 480).
origin("Vittorio_Veneto_2_573", "224[0]").
enter("Vittorio_Veneto_2_573", "224[0]", 0).
exit("Vittorio_Veneto_2_573", "224[0]", 140).
enter("Vittorio_Veneto_2_573", "224[1]", 140).
exit("Vittorio_Veneto_2_573", "224[1]", 200).
enter("Vittorio_Veneto_2_573", "[181|18]", 200).
exit("Vittorio_Veneto_2_573", "[181|18]", 275).
enter("Vittorio_Veneto_2_573", "[17|71]", 275).
exit("Vittorio_Veneto_2_573", "[17|71]", 330).
enter("Vittorio_Veneto_2_573", "67", 330).
exit("Vittorio_Veneto_2_573", "67", 345).
enter("Vittorio_Veneto_2_573", "[80|127]", 345).
exit("Vittorio_Veneto_2_573", "[80|127]", 365).
enter("Vittorio_Veneto_2_573", "(77[1][0])", 365).
exit("Vittorio_Veneto_2_573", "(77[1][0])", 385).
enter("Vittorio_Veneto_2_573", "77[1][1]", 385).
exit("Vittorio_Veneto_2_573", "77[1][1]", 425).
origin("Audinot_3_138", "131").
enter("Audinot_3_138", "131", 0).
exit("Audinot_3_138", "131", 115).
enter("Audinot_3_138", "65", 115).
exit("Audinot_3_138", "65", 160).
enter("Audinot_3_138", "57[0]", 160).
exit("Audinot_3_138", "57[0]", 250).
enter("Audinot_3_138", "57[1]", 250).
exit("Audinot_3_138", "57[1]", 260).
enter("Audinot_3_138", "62", 260).
exit("Audinot_3_138", "62", 340).
enter("Audinot_3_138", "159", 340).
exit("Audinot_3_138", "159", 435).
enter("Audinot_3_138", "42", 435).
exit("Audinot_3_138", "42", 475).
enter("Audinot_3_138", "39", 475).
exit("Audinot_3_138", "39", 495).
enter("Audinot_3_138", "35", 495).
exit("Audinot_3_138", "35", 530).
enter("Audinot_3_138", "38", 530).
exit("Audinot_3_138", "38", 585).
enter("Audinot_3_138", "33", 585).
exit("Audinot_3_138", "33", 595).
enter("Audinot_3_138", "10", 595).
exit("Audinot_3_138", "10", 1155).
origin("Audinot_9_92", "201c").
enter("Audinot_9_92", "201c", 0).
exit("Audinot_9_92", "201c", 35).
enter("Audinot_9_92", "204a[0]", 35).
exit("Audinot_9_92", "204a[0]", 155).
enter("Audinot_9_92", "204b[0]", 155).
exit("Audinot_9_92", "204b[0]", 160).
enter("Audinot_9_92", "54", 160).
exit("Audinot_9_92", "54", 185).
origin("Costa_700_1326", "120").
enter("Costa_700_1326", "120", 0).
exit("Costa_700_1326", "120", 35).
enter("Costa_700_1326", "117", 35).
exit("Costa_700_1326", "117", 90).
enter("Costa_700_1326", "209", 90).
exit("Costa_700_1326", "209", 955).
origin("Vittorio_Veneto_10_215", "122").
enter("Vittorio_Veneto_10_215", "122", 0).
exit("Vittorio_Veneto_10_215", "122", 55).
enter("Vittorio_Veneto_10_215", "1b", 55).
exit("Vittorio_Veneto_10_215", "1b", 115).
enter("Vittorio_Veneto_10_215", "1", 115).
exit("Vittorio_Veneto_10_215", "1", 150).
enter("Vittorio_Veneto_10_215", "204a[0]", 150).
exit("Vittorio_Veneto_10_215", "204a[0]", 270).
enter("Vittorio_Veneto_10_215", "204b[0]", 270).
exit("Vittorio_Veneto_10_215", "204b[0]", 275).
enter("Vittorio_Veneto_10_215", "204[1][0]", 275).
exit("Vittorio_Veneto_10_215", "204[1][0]", 310).
enter("Vittorio_Veneto_10_215", "204[1][1]", 310).
exit("Vittorio_Veneto_10_215", "204[1][1]", 345).
origin("Audinot_3_143", "131").
enter("Audinot_3_143", "131", 0).
exit("Audinot_3_143", "131", 50).
enter("Audinot_3_143", "65", 50).
exit("Audinot_3_143", "65", 90).
enter("Audinot_3_143", "57[0]", 90).
exit("Audinot_3_143", "57[0]", 125).
enter("Audinot_3_143", "57[1]", 125).
exit("Audinot_3_143", "57[1]", 145).
enter("Audinot_3_143", "62", 145).
exit("Audinot_3_143", "62", 220).
enter("Audinot_3_143", "159", 220).
exit("Audinot_3_143", "159", 255).
enter("Audinot_3_143", "42", 255).
exit("Audinot_3_143", "42", 310).
enter("Audinot_3_143", "39", 310).
exit("Audinot_3_143", "39", 325).
enter("Audinot_3_143", "35", 325).
exit("Audinot_3_143", "35", 350).
enter("Audinot_3_143", "38", 350).
exit("Audinot_3_143", "38", 465).
enter("Audinot_3_143", "33", 465).
exit("Audinot_3_143", "33", 505).
enter("Audinot_3_143", "10", 505).
exit("Audinot_3_143", "10", 985).
origin("Togliatti_10_563", "85").
enter("Togliatti_10_563", "85", 0).
exit("Togliatti_10_563", "85", 70).
enter("Togliatti_10_563", "72[0]", 70).
exit("Togliatti_10_563", "72[0]", 145).
enter("Togliatti_10_563", "72[1]", 145).
exit("Togliatti_10_563", "72[1]", 185).
enter("Togliatti_10_563", "69", 185).
exit("Togliatti_10_563", "69", 280).
enter("Togliatti_10_563", "161", 280).
exit("Togliatti_10_563", "161", 305).
enter("Togliatti_10_563", "122", 305).
exit("Togliatti_10_563", "122", 405).
enter("Togliatti_10_563", "1b", 405).
exit("Togliatti_10_563", "1b", 465).
enter("Togliatti_10_563", "1", 465).
exit("Togliatti_10_563", "1", 500).
enter("Togliatti_10_563", "204a[0]", 500).
exit("Togliatti_10_563", "204a[0]", 620).
enter("Togliatti_10_563", "204b[0]", 620).
exit("Togliatti_10_563", "204b[0]", 625).
enter("Togliatti_10_563", "204[1][0]", 625).
exit("Togliatti_10_563", "204[1][0]", 660).
enter("Togliatti_10_563", "204[1][1]", 660).
exit("Togliatti_10_563", "204[1][1]", 695).
origin("Togliatti_10_523", "72[0]").
enter("Togliatti_10_523", "72[0]", 0).
exit("Togliatti_10_523", "72[0]", 75).
enter("Togliatti_10_523", "72[1]", 75).
exit("Togliatti_10_523", "72[1]", 115).
enter("Togliatti_10_523", "69", 115).
exit("Togliatti_10_523", "69", 210).
enter("Togliatti_10_523", "161", 210).
exit("Togliatti_10_523", "161", 260).
enter("Togliatti_10_523", "122", 260).
exit("Togliatti_10_523", "122", 360).
enter("Togliatti_10_523", "1b", 360).
exit("Togliatti_10_523", "1b", 420).
enter("Togliatti_10_523", "1", 420).
exit("Togliatti_10_523", "1", 455).
enter("Togliatti_10_523", "204a[0]", 455).
exit("Togliatti_10_523", "204a[0]", 575).
enter("Togliatti_10_523", "204b[0]", 575).
exit("Togliatti_10_523", "204b[0]", 580).
enter("Togliatti_10_523", "204[1][0]", 580).
exit("Togliatti_10_523", "204[1][0]", 615).
enter("Togliatti_10_523", "204[1][1]", 615).
exit("Togliatti_10_523", "204[1][1]", 650).
origin("Audinot_3_94", "57[0]").
enter("Audinot_3_94", "57[0]", 0).
exit("Audinot_3_94", "57[0]", 85).
enter("Audinot_3_94", "57[1]", 85).
exit("Audinot_3_94", "57[1]", 100).
enter("Audinot_3_94", "62", 100).
exit("Audinot_3_94", "62", 190).
enter("Audinot_3_94", "159", 190).
exit("Audinot_3_94", "159", 295).
enter("Audinot_3_94", "42", 295).
exit("Audinot_3_94", "42", 315).
enter("Audinot_3_94", "39", 315).
exit("Audinot_3_94", "39", 335).
enter("Audinot_3_94", "35", 335).
exit("Audinot_3_94", "35", 390).
enter("Audinot_3_94", "38", 390).
exit("Audinot_3_94", "38", 450).
enter("Audinot_3_94", "15", 450).
exit("Audinot_3_94", "15", 525).
enter("Audinot_3_94", "14", 525).
exit("Audinot_3_94", "14", 565).
origin("XXI_Aprile_113_933", "1b").
enter("XXI_Aprile_113_933", "1b", 0).
exit("XXI_Aprile_113_933", "1b", 60).
enter("XXI_Aprile_113_933", "1", 60).
exit("XXI_Aprile_113_933", "1", 95).
enter("XXI_Aprile_113_933", "204a[0]", 95).
exit("XXI_Aprile_113_933", "204a[0]", 215).
enter("XXI_Aprile_113_933", "124", 215).
exit("XXI_Aprile_113_933", "124", 260).
origin("Costa_200_1205", "204a[0]").
enter("Costa_200_1205", "204a[0]", 0).
exit("Costa_200_1205", "204a[0]", 120).
enter("Costa_200_1205", "204b[0]", 120).
exit("Costa_200_1205", "204b[0]", 125).
enter("Costa_200_1205", "204[1][0]", 125).
exit("Costa_200_1205", "204[1][0]", 160).
enter("Costa_200_1205", "204[1][1]", 160).
exit("Costa_200_1205", "204[1][1]", 195).
origin("Togliatti_10_483", "69").
enter("Togliatti_10_483", "69", 0).
exit("Togliatti_10_483", "69", 95).
enter("Togliatti_10_483", "161", 95).
exit("Togliatti_10_483", "161", 145).
enter("Togliatti_10_483", "122", 145).
exit("Togliatti_10_483", "122", 200).
enter("Togliatti_10_483", "1b", 200).
exit("Togliatti_10_483", "1b", 260).
enter("Togliatti_10_483", "1", 260).
exit("Togliatti_10_483", "1", 295).
enter("Togliatti_10_483", "204a[0]", 295).
exit("Togliatti_10_483", "204a[0]", 415).
enter("Togliatti_10_483", "204b[0]", 415).
exit("Togliatti_10_483", "204b[0]", 420).
enter("Togliatti_10_483", "204[1][0]", 420).
exit("Togliatti_10_483", "204[1][0]", 455).
enter("Togliatti_10_483", "204[1][1]", 455).
exit("Togliatti_10_483", "204[1][1]", 490).
origin("Togliatti_10_596", "85").
enter("Togliatti_10_596", "85", 0).
exit("Togliatti_10_596", "85", 70).
enter("Togliatti_10_596", "72[0]", 70).
exit("Togliatti_10_596", "72[0]", 225).
enter("Togliatti_10_596", "72[1]", 225).
exit("Togliatti_10_596", "72[1]", 300).
enter("Togliatti_10_596", "69", 300).
exit("Togliatti_10_596", "69", 715).
enter("Togliatti_10_596", "161", 715).
exit("Togliatti_10_596", "161", 740).
enter("Togliatti_10_596", "122", 740).
exit("Togliatti_10_596", "122", 1395).
enter("Togliatti_10_596", "1b", 1395).
exit("Togliatti_10_596", "1b", 2310).
enter("Togliatti_10_596", "1", 2310).
exit("Togliatti_10_596", "1", 2395).
enter("Togliatti_10_596", "204a[0]", 2395).
exit("Togliatti_10_596", "204a[0]", 2500).
enter("Togliatti_10_596", "204b[0]", 2500).
exit("Togliatti_10_596", "204b[0]", 2515).
enter("Togliatti_10_596", "204[1][0]", 2515).
exit("Togliatti_10_596", "204[1][0]", 2555).
enter("Togliatti_10_596", "204[1][1]", 2555).
exit("Togliatti_10_596", "204[1][1]", 2945).
origin("Costa_91_1261", "122").
enter("Costa_91_1261", "122", 0).
exit("Costa_91_1261", "122", 100).
enter("Costa_91_1261", "1b", 100).
exit("Costa_91_1261", "1b", 160).
enter("Costa_91_1261", "1", 160).
exit("Costa_91_1261", "1", 195).
enter("Costa_91_1261", "204a[0]", 195).
exit("Costa_91_1261", "204a[0]", 315).
enter("Costa_91_1261", "204b[0]", 315).
exit("Costa_91_1261", "204b[0]", 320).
enter("Costa_91_1261", "54", 320).
exit("Costa_91_1261", "54", 345).
origin("Togliatti_10_705", "85").
enter("Togliatti_10_705", "85", 0).
exit("Togliatti_10_705", "85", 60).
enter("Togliatti_10_705", "72[0]", 60).
exit("Togliatti_10_705", "72[0]", 265).
enter("Togliatti_10_705", "72[1]", 265).
exit("Togliatti_10_705", "72[1]", 370).
enter("Togliatti_10_705", "69", 370).
exit("Togliatti_10_705", "69", 715).
enter("Togliatti_10_705", "161", 715).
exit("Togliatti_10_705", "161", 740).
enter("Togliatti_10_705", "122", 740).
exit("Togliatti_10_705", "122", 1055).
enter("Togliatti_10_705", "1b", 1055).
exit("Togliatti_10_705", "1b", 2100).
enter("Togliatti_10_705", "1", 2100).
exit("Togliatti_10_705", "1", 2290).
enter("Togliatti_10_705", "204a[0]", 2290).
exit("Togliatti_10_705", "204a[0]", 2390).
enter("Togliatti_10_705", "204b[0]", 2390).
exit("Togliatti_10_705", "204b[0]", 2395).
enter("Togliatti_10_705", "204[1][0]", 2395).
exit("Togliatti_10_705", "204[1][0]", 2450).
enter("Togliatti_10_705", "204[1][1]", 2450).
exit("Togliatti_10_705", "204[1][1]", 2665).
origin("Vittorio_Veneto_10_556", "224[0]").
enter("Vittorio_Veneto_10_556", "224[0]", 0).
exit("Vittorio_Veneto_10_556", "224[0]", 85).
enter("Vittorio_Veneto_10_556", "224[1]", 85).
exit("Vittorio_Veneto_10_556", "224[1]", 115).
enter("Vittorio_Veneto_10_556", "[181|18]", 115).
exit("Vittorio_Veneto_10_556", "[181|18]", 215).
enter("Vittorio_Veneto_10_556", "69", 215).
exit("Vittorio_Veneto_10_556", "69", 300).
enter("Vittorio_Veneto_10_556", "161", 300).
exit("Vittorio_Veneto_10_556", "161", 335).
enter("Vittorio_Veneto_10_556", "194", 335).
exit("Vittorio_Veneto_10_556", "194", 350).
enter("Vittorio_Veneto_10_556", "91", 350).
exit("Vittorio_Veneto_10_556", "91", 355).
enter("Vittorio_Veneto_10_556", "186", 355).
exit("Vittorio_Veneto_10_556", "186", 365).
enter("Vittorio_Veneto_10_556", "[109[0]|109[1][0]+20003|109[1][1]]", 365).
exit("Vittorio_Veneto_10_556", "[109[0]|109[1][0]+20003|109[1][1]]", 385).
enter("Vittorio_Veneto_10_556", "[116|46]", 385).
exit("Vittorio_Veneto_10_556", "[116|46]", 435).
enter("Vittorio_Veneto_10_556", "201", 435).
exit("Vittorio_Veneto_10_556", "201", 590).
enter("Vittorio_Veneto_10_556", "201c", 590).
exit("Vittorio_Veneto_10_556", "201c", 625).
enter("Vittorio_Veneto_10_556", "204a[0]", 625).
exit("Vittorio_Veneto_10_556", "204a[0]", 1745).
enter("Vittorio_Veneto_10_556", "204b[0]", 1745).
exit("Vittorio_Veneto_10_556", "204b[0]", 1845).
enter("Vittorio_Veneto_10_556", "204[1][0]", 1845).
exit("Vittorio_Veneto_10_556", "204[1][0]", 1885).
enter("Vittorio_Veneto_10_556", "204[1][1]", 1885).
exit("Vittorio_Veneto_10_556", "204[1][1]", 2645).
origin("Togliatti_10_393", "122").
enter("Togliatti_10_393", "122", 0).
exit("Togliatti_10_393", "122", 230).
enter("Togliatti_10_393", "1b", 230).
exit("Togliatti_10_393", "1b", 1535).
enter("Togliatti_10_393", "1", 1535).
exit("Togliatti_10_393", "1", 1580).
enter("Togliatti_10_393", "204a[0]", 1580).
exit("Togliatti_10_393", "204a[0]", 1735).
enter("Togliatti_10_393", "204b[0]", 1735).
exit("Togliatti_10_393", "204b[0]", 1770).
enter("Togliatti_10_393", "204[1][0]", 1770).
exit("Togliatti_10_393", "204[1][0]", 1805).
enter("Togliatti_10_393", "204[1][1]", 1805).
exit("Togliatti_10_393", "204[1][1]", 2190).
origin("Pepoli_12_1919", "159").
enter("Pepoli_12_1919", "159", 0).
exit("Pepoli_12_1919", "159", 105).
enter("Pepoli_12_1919", "42", 105).
exit("Pepoli_12_1919", "42", 125).
enter("Pepoli_12_1919", "39", 125).
exit("Pepoli_12_1919", "39", 145).
enter("Pepoli_12_1919", "35", 145).
exit("Pepoli_12_1919", "35", 200).
enter("Pepoli_12_1919", "38", 200).
exit("Pepoli_12_1919", "38", 260).
enter("Pepoli_12_1919", "50", 260).
exit("Pepoli_12_1919", "50", 320).
enter("Pepoli_12_1919", "19", 320).
exit("Pepoli_12_1919", "19", 355).
enter("Pepoli_12_1919", "[22|59]", 355).
exit("Pepoli_12_1919", "[22|59]", 425).
enter("Pepoli_12_1919", "(53cd|53[0]|53[1][0])", 425).
exit("Pepoli_12_1919", "(53cd|53[0]|53[1][0])", 445).
enter("Pepoli_12_1919", "79", 445).
exit("Pepoli_12_1919", "79", 515).
enter("Pepoli_12_1919", "[68|11]", 515).
exit("Pepoli_12_1919", "[68|11]", 570).
enter("Pepoli_12_1919", "84", 570).
exit("Pepoli_12_1919", "84", 590).
enter("Pepoli_12_1919", "180", 590).
exit("Pepoli_12_1919", "180", 685).
origin("Silvani_1_1340", "[189[0]|189[1][0]+20000|189[1][1]]").
enter("Silvani_1_1340", "[189[0]|189[1][0]+20000|189[1][1]]", 0).
exit("Silvani_1_1340", "[189[0]|189[1][0]+20000|189[1][1]]", 50).
enter("Silvani_1_1340", "191", 50).
exit("Silvani_1_1340", "191", 95).
enter("Silvani_1_1340", "[17|71]", 95).
exit("Silvani_1_1340", "[17|71]", 145).
enter("Silvani_1_1340", "86", 145).
exit("Silvani_1_1340", "86", 175).
origin("Costa_70_1203", "120").
enter("Costa_70_1203", "120", 0).
exit("Costa_70_1203", "120", 15).
enter("Costa_70_1203", "117", 15).
exit("Costa_70_1203", "117", 60).
enter("Costa_70_1203", "209", 60).
exit("Costa_70_1203", "209", 1250).
origin("Vittorio_Veneto_73_466", "[202|34]").
enter("Vittorio_Veneto_73_466", "[202|34]", 0).
exit("Vittorio_Veneto_73_466", "[202|34]", 85).
enter("Vittorio_Veneto_73_466", "113", 85).
exit("Vittorio_Veneto_73_466", "113", 155).
enter("Vittorio_Veneto_73_466", "209", 155).
exit("Vittorio_Veneto_73_466", "209", 205).
origin("Silvani_3_1475", "38").
enter("Silvani_3_1475", "38", 0).
exit("Silvani_3_1475", "38", 60).
enter("Silvani_3_1475", "15", 60).
exit("Silvani_3_1475", "15", 135).
enter("Silvani_3_1475", "14", 135).
exit("Silvani_3_1475", "14", 175).
origin("Togliatti_10_476", "69").
enter("Togliatti_10_476", "69", 0).
exit("Togliatti_10_476", "69", 95).
enter("Togliatti_10_476", "161", 95).
exit("Togliatti_10_476", "161", 145).
enter("Togliatti_10_476", "122", 145).
exit("Togliatti_10_476", "122", 200).
enter("Togliatti_10_476", "1b", 200).
exit("Togliatti_10_476", "1b", 260).
enter("Togliatti_10_476", "1", 260).
exit("Togliatti_10_476", "1", 295).
enter("Togliatti_10_476", "204a[0]", 295).
exit("Togliatti_10_476", "204a[0]", 415).
enter("Togliatti_10_476", "204b[0]", 415).
exit("Togliatti_10_476", "204b[0]", 420).
enter("Togliatti_10_476", "204[1][0]", 420).
exit("Togliatti_10_476", "204[1][0]", 455).
enter("Togliatti_10_476", "204[1][1]", 455).
exit("Togliatti_10_476", "204[1][1]", 490).
origin("Pepoli_3_1777", "35").
enter("Pepoli_3_1777", "35", 0).
exit("Pepoli_3_1777", "35", 55).
enter("Pepoli_3_1777", "38", 55).
exit("Pepoli_3_1777", "38", 115).
enter("Pepoli_3_1777", "15", 115).
exit("Pepoli_3_1777", "15", 190).
enter("Pepoli_3_1777", "14", 190).
exit("Pepoli_3_1777", "14", 230).
origin("Audinot_3_127", "131").
enter("Audinot_3_127", "131", 0).
exit("Audinot_3_127", "131", 150).
enter("Audinot_3_127", "65", 150).
exit("Audinot_3_127", "65", 195).
enter("Audinot_3_127", "57[0]", 195).
exit("Audinot_3_127", "57[0]", 280).
enter("Audinot_3_127", "57[1]", 280).
exit("Audinot_3_127", "57[1]", 295).
enter("Audinot_3_127", "62", 295).
exit("Audinot_3_127", "62", 385).
enter("Audinot_3_127", "159", 385).
exit("Audinot_3_127", "159", 490).
enter("Audinot_3_127", "42", 490).
exit("Audinot_3_127", "42", 510).
enter("Audinot_3_127", "39", 510).
exit("Audinot_3_127", "39", 530).
enter("Audinot_3_127", "35", 530).
exit("Audinot_3_127", "35", 585).
enter("Audinot_3_127", "38", 585).
exit("Audinot_3_127", "38", 645).
enter("Audinot_3_127", "15", 645).
exit("Audinot_3_127", "15", 720).
enter("Audinot_3_127", "14", 720).
exit("Audinot_3_127", "14", 760).
origin("Costa_200_411", "1b").
enter("Costa_200_411", "1b", 0).
exit("Costa_200_411", "1b", 60).
enter("Costa_200_411", "1", 60).
exit("Costa_200_411", "1", 95).
enter("Costa_200_411", "204a[0]", 95).
exit("Costa_200_411", "204a[0]", 215).
enter("Costa_200_411", "204b[0]", 215).
exit("Costa_200_411", "204b[0]", 220).
enter("Costa_200_411", "204[1][0]", 220).
exit("Costa_200_411", "204[1][0]", 255).
enter("Costa_200_411", "204[1][1]", 255).
exit("Costa_200_411", "204[1][1]", 290).
origin("Pepoli_2_1785", "35").
enter("Pepoli_2_1785", "35", 0).
exit("Pepoli_2_1785", "35", 55).
enter("Pepoli_2_1785", "38", 55).
exit("Pepoli_2_1785", "38", 115).
enter("Pepoli_2_1785", "50", 115).
exit("Pepoli_2_1785", "50", 175).
enter("Pepoli_2_1785", "19", 175).
exit("Pepoli_2_1785", "19", 210).
enter("Pepoli_2_1785", "[22|59]", 210).
exit("Pepoli_2_1785", "[22|59]", 280).
enter("Pepoli_2_1785", "(53cd|53[0]|53[1][0]|53[1][1][0]|77[1][0])", 280).
exit("Pepoli_2_1785", "(53cd|53[0]|53[1][0]|53[1][1][0]|77[1][0])", 285).
enter("Pepoli_2_1785", "77[1][1]", 285).
exit("Pepoli_2_1785", "77[1][1]", 345).
origin("Togliatti_80_674", "85").
enter("Togliatti_80_674", "85", 0).
exit("Togliatti_80_674", "85", 60).
enter("Togliatti_80_674", "72[0]", 60).
exit("Togliatti_80_674", "72[0]", 195).
enter("Togliatti_80_674", "72[1]", 195).
exit("Togliatti_80_674", "72[1]", 370).
enter("Togliatti_80_674", "69", 370).
exit("Togliatti_80_674", "69", 430).
enter("Togliatti_80_674", "161", 430).
exit("Togliatti_80_674", "161", 450).
enter("Togliatti_80_674", "122", 450).
exit("Togliatti_80_674", "122", 620).
enter("Togliatti_80_674", "[3|2]", 620).
exit("Togliatti_80_674", "[3|2]", 750).
enter("Togliatti_80_674", "[202|34]", 750).
exit("Togliatti_80_674", "[202|34]", 805).
enter("Togliatti_80_674", "134", 805).
exit("Togliatti_80_674", "134", 810).
origin("Togliatti_3_766", "42").
enter("Togliatti_3_766", "42", 0).
exit("Togliatti_3_766", "42", 55).
enter("Togliatti_3_766", "39", 55).
exit("Togliatti_3_766", "39", 60).
enter("Togliatti_3_766", "35", 60).
exit("Togliatti_3_766", "35", 70).
enter("Togliatti_3_766", "38", 70).
exit("Togliatti_3_766", "38", 85).
enter("Togliatti_3_766", "33", 85).
exit("Togliatti_3_766", "33", 300).
enter("Togliatti_3_766", "10", 300).
exit("Togliatti_3_766", "10", 325).
origin("Vittorio_Veneto_2_476", "77[1][1]").
enter("Vittorio_Veneto_2_476", "77[1][1]", 0).
exit("Vittorio_Veneto_2_476", "77[1][1]", 40).
origin("Audinot_5_134", "131").
enter("Audinot_5_134", "131", 0).
exit("Audinot_5_134", "131", 150).
enter("Audinot_5_134", "65", 150).
exit("Audinot_5_134", "65", 195).
enter("Audinot_5_134", "[200|60]", 195).
exit("Audinot_5_134", "[200|60]", 235).
origin("Audinot_10_139", "131").
enter("Audinot_10_139", "131", 0).
exit("Audinot_10_139", "131", 80).
enter("Audinot_10_139", "119", 80).
exit("Audinot_10_139", "119", 95).
enter("Audinot_10_139", "[116|46]", 95).
exit("Audinot_10_139", "[116|46]", 190).
enter("Audinot_10_139", "201", 190).
exit("Audinot_10_139", "201", 240).
enter("Audinot_10_139", "201c", 240).
exit("Audinot_10_139", "201c", 275).
enter("Audinot_10_139", "204a[0]", 275).
exit("Audinot_10_139", "204a[0]", 395).
enter("Audinot_10_139", "204b[0]", 395).
exit("Audinot_10_139", "204b[0]", 400).
enter("Audinot_10_139", "204[1][0]", 400).
exit("Audinot_10_139", "204[1][0]", 435).
enter("Audinot_10_139", "204[1][1]", 435).
exit("Audinot_10_139", "204[1][1]", 470).
origin("Togliatti_9_481", "194").
enter("Togliatti_9_481", "194", 0).
exit("Togliatti_9_481", "194", 55).
enter("Togliatti_9_481", "91", 55).
exit("Togliatti_9_481", "91", 75).
enter("Togliatti_9_481", "186", 75).
exit("Togliatti_9_481", "186", 125).
enter("Togliatti_9_481", "[109[0]|109[1][0]+20003|109[1][1]]", 125).
exit("Togliatti_9_481", "[109[0]|109[1][0]+20003|109[1][1]]", 195).
enter("Togliatti_9_481", "[116|46]", 195).
exit("Togliatti_9_481", "[116|46]", 240).
enter("Togliatti_9_481", "201", 240).
exit("Togliatti_9_481", "201", 290).
enter("Togliatti_9_481", "201c", 290).
exit("Togliatti_9_481", "201c", 360).
enter("Togliatti_9_481", "204a[0]", 360).
exit("Togliatti_9_481", "204a[0]", 440).
enter("Togliatti_9_481", "204b[0]", 440).
exit("Togliatti_9_481", "204b[0]", 485).
enter("Togliatti_9_481", "54", 485).
exit("Togliatti_9_481", "54", 2185).
origin("Audinot_12_132", "131").
enter("Audinot_12_132", "131", 0).
exit("Audinot_12_132", "131", 150).
enter("Audinot_12_132", "65", 150).
exit("Audinot_12_132", "65", 195).
enter("Audinot_12_132", "57[0]", 195).
exit("Audinot_12_132", "57[0]", 280).
enter("Audinot_12_132", "57[1]", 280).
exit("Audinot_12_132", "57[1]", 295).
enter("Audinot_12_132", "62", 295).
exit("Audinot_12_132", "62", 385).
enter("Audinot_12_132", "159", 385).
exit("Audinot_12_132", "159", 490).
enter("Audinot_12_132", "42", 490).
exit("Audinot_12_132", "42", 510).
enter("Audinot_12_132", "39", 510).
exit("Audinot_12_132", "39", 530).
enter("Audinot_12_132", "35", 530).
exit("Audinot_12_132", "35", 585).
enter("Audinot_12_132", "38", 585).
exit("Audinot_12_132", "38", 645).
enter("Audinot_12_132", "50", 645).
exit("Audinot_12_132", "50", 705).
enter("Audinot_12_132", "19", 705).
exit("Audinot_12_132", "19", 740).
enter("Audinot_12_132", "[22|59]", 740).
exit("Audinot_12_132", "[22|59]", 810).
enter("Audinot_12_132", "(53cd|53[0]|53[1][0])", 810).
exit("Audinot_12_132", "(53cd|53[0]|53[1][0])", 830).
enter("Audinot_12_132", "79", 830).
exit("Audinot_12_132", "79", 870).
enter("Audinot_12_132", "[68|11]", 870).
exit("Audinot_12_132", "[68|11]", 915).
enter("Audinot_12_132", "84", 915).
exit("Audinot_12_132", "84", 935).
enter("Audinot_12_132", "180", 935).
exit("Audinot_12_132", "180", 960).
origin("Togliatti_9_286", "1b").
enter("Togliatti_9_286", "1b", 0).
exit("Togliatti_9_286", "1b", 365).
enter("Togliatti_9_286", "1", 365).
exit("Togliatti_9_286", "1", 400).
enter("Togliatti_9_286", "204a[0]", 400).
exit("Togliatti_9_286", "204a[0]", 915).
enter("Togliatti_9_286", "204b[0]", 915).
exit("Togliatti_9_286", "204b[0]", 960).
enter("Togliatti_9_286", "54", 960).
exit("Togliatti_9_286", "54", 1295).
origin("Togliatti_9_550", "[116|46]").
enter("Togliatti_9_550", "[116|46]", 0).
exit("Togliatti_9_550", "[116|46]", 50).
enter("Togliatti_9_550", "201", 50).
exit("Togliatti_9_550", "201", 210).
enter("Togliatti_9_550", "201c", 210).
exit("Togliatti_9_550", "201c", 355).
enter("Togliatti_9_550", "204a[0]", 355).
exit("Togliatti_9_550", "204a[0]", 410).
enter("Togliatti_9_550", "204b[0]", 410).
exit("Togliatti_9_550", "204b[0]", 525).
enter("Togliatti_9_550", "54", 525).
exit("Togliatti_9_550", "54", 1325).
origin("XXI_Aprile_93_838", "54").
enter("XXI_Aprile_93_838", "54", 0).
exit("XXI_Aprile_93_838", "54", 885).
origin("Costa_8_1354", "186").
enter("Costa_8_1354", "186", 0).
exit("Costa_8_1354", "186", 30).
enter("Costa_8_1354", "[109[0]|109[1][0]+20003|109[1][1]]", 30).
exit("Costa_8_1354", "[109[0]|109[1][0]+20003|109[1][1]]", 65).
enter("Costa_8_1354", "[116|46]", 65).
exit("Costa_8_1354", "[116|46]", 130).
enter("Costa_8_1354", "134", 130).
exit("Costa_8_1354", "134", 140).
origin("Audinot_3_88", "62").
enter("Audinot_3_88", "62", 0).
exit("Audinot_3_88", "62", 90).
enter("Audinot_3_88", "159", 90).
exit("Audinot_3_88", "159", 195).
enter("Audinot_3_88", "42", 195).
exit("Audinot_3_88", "42", 215).
enter("Audinot_3_88", "39", 215).
exit("Audinot_3_88", "39", 235).
enter("Audinot_3_88", "35", 235).
exit("Audinot_3_88", "35", 290).
enter("Audinot_3_88", "38", 290).
exit("Audinot_3_88", "38", 350).
enter("Audinot_3_88", "15", 350).
exit("Audinot_3_88", "15", 425).
enter("Audinot_3_88", "14", 425).
exit("Audinot_3_88", "14", 465).
origin("XXI_Aprile_102_713", "204a[0]").
enter("XXI_Aprile_102_713", "204a[0]", 0).
exit("XXI_Aprile_102_713", "204a[0]", 120).
enter("XXI_Aprile_102_713", "204b[0]", 120).
exit("XXI_Aprile_102_713", "204b[0]", 125).
enter("XXI_Aprile_102_713", "204[1][0]", 125).
exit("XXI_Aprile_102_713", "204[1][0]", 160).
enter("XXI_Aprile_102_713", "204[1][1]", 160).
exit("XXI_Aprile_102_713", "204[1][1]", 195).
origin("XXI_Aprile_7_1009", "[116|46]").
enter("XXI_Aprile_7_1009", "[116|46]", 0).
exit("XXI_Aprile_7_1009", "[116|46]", 65).
enter("XXI_Aprile_7_1009", "113", 65).
exit("XXI_Aprile_7_1009", "113", 135).
enter("XXI_Aprile_7_1009", "209", 135).
exit("XXI_Aprile_7_1009", "209", 185).
origin("Togliatti_10_376", "122").
enter("Togliatti_10_376", "122", 0).
exit("Togliatti_10_376", "122", 55).
enter("Togliatti_10_376", "1b", 55).
exit("Togliatti_10_376", "1b", 115).
enter("Togliatti_10_376", "1", 115).
exit("Togliatti_10_376", "1", 150).
enter("Togliatti_10_376", "204a[0]", 150).
exit("Togliatti_10_376", "204a[0]", 270).
enter("Togliatti_10_376", "204b[0]", 270).
exit("Togliatti_10_376", "204b[0]", 275).
enter("Togliatti_10_376", "204[1][0]", 275).
exit("Togliatti_10_376", "204[1][0]", 310).
enter("Togliatti_10_376", "204[1][1]", 310).
exit("Togliatti_10_376", "204[1][1]", 345).
origin("Togliatti_10_458", "161").
enter("Togliatti_10_458", "161", 0).
exit("Togliatti_10_458", "161", 50).
enter("Togliatti_10_458", "122", 50).
exit("Togliatti_10_458", "122", 105).
enter("Togliatti_10_458", "1b", 105).
exit("Togliatti_10_458", "1b", 165).
enter("Togliatti_10_458", "1", 165).
exit("Togliatti_10_458", "1", 200).
enter("Togliatti_10_458", "204a[0]", 200).
exit("Togliatti_10_458", "204a[0]", 320).
enter("Togliatti_10_458", "204b[0]", 320).
exit("Togliatti_10_458", "204b[0]", 325).
enter("Togliatti_10_458", "204[1][0]", 325).
exit("Togliatti_10_458", "204[1][0]", 360).
enter("Togliatti_10_458", "204[1][1]", 360).
exit("Togliatti_10_458", "204[1][1]", 395).
origin("Vittorio_Veneto_2_519", "224[1]").
enter("Vittorio_Veneto_2_519", "224[1]", 0).
exit("Vittorio_Veneto_2_519", "224[1]", 60).
enter("Vittorio_Veneto_2_519", "[181|18]", 60).
exit("Vittorio_Veneto_2_519", "[181|18]", 135).
enter("Vittorio_Veneto_2_519", "[17|71]", 135).
exit("Vittorio_Veneto_2_519", "[17|71]", 190).
enter("Vittorio_Veneto_2_519", "67", 190).
exit("Vittorio_Veneto_2_519", "67", 220).
enter("Vittorio_Veneto_2_519", "[80|127]", 220).
exit("Vittorio_Veneto_2_519", "[80|127]", 285).
enter("Vittorio_Veneto_2_519", "(77[1][0])", 285).
exit("Vittorio_Veneto_2_519", "(77[1][0])", 305).
enter("Vittorio_Veneto_2_519", "77[1][1]", 305).
exit("Vittorio_Veneto_2_519", "77[1][1]", 365).
origin("Pepoli_3_2046", "62").
enter("Pepoli_3_2046", "62", 0).
exit("Pepoli_3_2046", "62", 95).
enter("Pepoli_3_2046", "159", 95).
exit("Pepoli_3_2046", "159", 280).
enter("Pepoli_3_2046", "42", 280).
exit("Pepoli_3_2046", "42", 290).
enter("Pepoli_3_2046", "39", 290).
exit("Pepoli_3_2046", "39", 345).
enter("Pepoli_3_2046", "35", 345).
exit("Pepoli_3_2046", "35", 400).
enter("Pepoli_3_2046", "38", 400).
exit("Pepoli_3_2046", "38", 430).
enter("Pepoli_3_2046", "33", 430).
exit("Pepoli_3_2046", "33", 445).
enter("Pepoli_3_2046", "10", 445).
exit("Pepoli_3_2046", "10", 1440).
origin("Audinot_12_108", "57[0]").
enter("Audinot_12_108", "57[0]", 0).
exit("Audinot_12_108", "57[0]", 85).
enter("Audinot_12_108", "57[1]", 85).
exit("Audinot_12_108", "57[1]", 100).
enter("Audinot_12_108", "62", 100).
exit("Audinot_12_108", "62", 190).
enter("Audinot_12_108", "159", 190).
exit("Audinot_12_108", "159", 295).
enter("Audinot_12_108", "42", 295).
exit("Audinot_12_108", "42", 315).
enter("Audinot_12_108", "39", 315).
exit("Audinot_12_108", "39", 335).
enter("Audinot_12_108", "35", 335).
exit("Audinot_12_108", "35", 390).
enter("Audinot_12_108", "38", 390).
exit("Audinot_12_108", "38", 450).
enter("Audinot_12_108", "50", 450).
exit("Audinot_12_108", "50", 510).
enter("Audinot_12_108", "19", 510).
exit("Audinot_12_108", "19", 545).
enter("Audinot_12_108", "[22|59]", 545).
exit("Audinot_12_108", "[22|59]", 615).
enter("Audinot_12_108", "(53cd|53[0]|53[1][0])", 615).
exit("Audinot_12_108", "(53cd|53[0]|53[1][0])", 635).
enter("Audinot_12_108", "79", 635).
exit("Audinot_12_108", "79", 675).
enter("Audinot_12_108", "[68|11]", 675).
exit("Audinot_12_108", "[68|11]", 730).
enter("Audinot_12_108", "84", 730).
exit("Audinot_12_108", "84", 750).
enter("Audinot_12_108", "180", 750).
exit("Audinot_12_108", "180", 800).
origin("XXI_Aprile_102_627", "204a[0]").
enter("XXI_Aprile_102_627", "204a[0]", 0).
exit("XXI_Aprile_102_627", "204a[0]", 120).
enter("XXI_Aprile_102_627", "204b[0]", 120).
exit("XXI_Aprile_102_627", "204b[0]", 125).
enter("XXI_Aprile_102_627", "204[1][0]", 125).
exit("XXI_Aprile_102_627", "204[1][0]", 160).
enter("XXI_Aprile_102_627", "204[1][1]", 160).
exit("XXI_Aprile_102_627", "204[1][1]", 195).
origin("Silvani_1_1234", "86").
enter("Silvani_1_1234", "86", 0).
exit("Silvani_1_1234", "86", 30).
origin("Togliatti_10_671", "197").
enter("Togliatti_10_671", "197", 0).
exit("Togliatti_10_671", "197", 20).
enter("Togliatti_10_671", "[109[0]|109[1][0]+20003|109[1][1]]", 20).
exit("Togliatti_10_671", "[109[0]|109[1][0]+20003|109[1][1]]", 55).
enter("Togliatti_10_671", "[116|46]", 55).
exit("Togliatti_10_671", "[116|46]", 115).
enter("Togliatti_10_671", "201", 115).
exit("Togliatti_10_671", "201", 310).
enter("Togliatti_10_671", "201c", 310).
exit("Togliatti_10_671", "201c", 390).
enter("Togliatti_10_671", "204a[0]", 390).
exit("Togliatti_10_671", "204a[0]", 1480).
enter("Togliatti_10_671", "204b[0]", 1480).
exit("Togliatti_10_671", "204b[0]", 1525).
enter("Togliatti_10_671", "204[1][0]", 1525).
exit("Togliatti_10_671", "204[1][0]", 1575).
enter("Togliatti_10_671", "204[1][1]", 1575).
exit("Togliatti_10_671", "204[1][1]", 1655).
origin("Audinot_12_105", "57[0]").
enter("Audinot_12_105", "57[0]", 0).
exit("Audinot_12_105", "57[0]", 85).
enter("Audinot_12_105", "57[1]", 85).
exit("Audinot_12_105", "57[1]", 100).
enter("Audinot_12_105", "62", 100).
exit("Audinot_12_105", "62", 190).
enter("Audinot_12_105", "159", 190).
exit("Audinot_12_105", "159", 295).
enter("Audinot_12_105", "42", 295).
exit("Audinot_12_105", "42", 315).
enter("Audinot_12_105", "39", 315).
exit("Audinot_12_105", "39", 335).
enter("Audinot_12_105", "35", 335).
exit("Audinot_12_105", "35", 390).
enter("Audinot_12_105", "38", 390).
exit("Audinot_12_105", "38", 450).
enter("Audinot_12_105", "50", 450).
exit("Audinot_12_105", "50", 510).
enter("Audinot_12_105", "19", 510).
exit("Audinot_12_105", "19", 545).
enter("Audinot_12_105", "[22|59]", 545).
exit("Audinot_12_105", "[22|59]", 615).
enter("Audinot_12_105", "(53cd|53[0]|53[1][0])", 615).
exit("Audinot_12_105", "(53cd|53[0]|53[1][0])", 635).
enter("Audinot_12_105", "79", 635).
exit("Audinot_12_105", "79", 675).
enter("Audinot_12_105", "[68|11]", 675).
exit("Audinot_12_105", "[68|11]", 730).
enter("Audinot_12_105", "84", 730).
exit("Audinot_12_105", "84", 750).
enter("Audinot_12_105", "180", 750).
exit("Audinot_12_105", "180", 845).
origin("XXI_Aprile_92_949", "122").
enter("XXI_Aprile_92_949", "122", 0).
exit("XXI_Aprile_92_949", "122", 100).
enter("XXI_Aprile_92_949", "1b", 100).
exit("XXI_Aprile_92_949", "1b", 160).
enter("XXI_Aprile_92_949", "1", 160).
exit("XXI_Aprile_92_949", "1", 195).
enter("XXI_Aprile_92_949", "204a[0]", 195).
exit("XXI_Aprile_92_949", "204a[0]", 315).
enter("XXI_Aprile_92_949", "204b[0]", 315).
exit("XXI_Aprile_92_949", "204b[0]", 320).
enter("XXI_Aprile_92_949", "54", 320).
exit("XXI_Aprile_92_949", "54", 345).
origin("Audinot_7_131", "131").
enter("Audinot_7_131", "131", 0).
exit("Audinot_7_131", "131", 150).
enter("Audinot_7_131", "117", 150).
exit("Audinot_7_131", "117", 200).
enter("Audinot_7_131", "209", 200).
exit("Audinot_7_131", "209", 250).
origin("Vittorio_Veneto_3_568", "224[0]").
enter("Vittorio_Veneto_3_568", "224[0]", 0).
exit("Vittorio_Veneto_3_568", "224[0]", 140).
enter("Vittorio_Veneto_3_568", "224[1]", 140).
exit("Vittorio_Veneto_3_568", "224[1]", 200).
enter("Vittorio_Veneto_3_568", "[181|18]", 200).
exit("Vittorio_Veneto_3_568", "[181|18]", 275).
enter("Vittorio_Veneto_3_568", "[17|71]", 275).
exit("Vittorio_Veneto_3_568", "[17|71]", 330).
enter("Vittorio_Veneto_3_568", "67", 330).
exit("Vittorio_Veneto_3_568", "67", 345).
enter("Vittorio_Veneto_3_568", "[80|127]", 345).
exit("Vittorio_Veneto_3_568", "[80|127]", 380).
enter("Vittorio_Veneto_3_568", "(77[1][0]|77ab|77bc)", 380).
exit("Vittorio_Veneto_3_568", "(77[1][0]|77ab|77bc)", 385).
enter("Vittorio_Veneto_3_568", "21a", 385).
exit("Vittorio_Veneto_3_568", "21a", 390).
enter("Vittorio_Veneto_3_568", "21b", 390).
exit("Vittorio_Veneto_3_568", "21b", 405).
enter("Vittorio_Veneto_3_568", "103", 405).
exit("Vittorio_Veneto_3_568", "103", 450).
enter("Vittorio_Veneto_3_568", "14", 450).
exit("Vittorio_Veneto_3_568", "14", 490).
origin("Vittorio_Veneto_2_490", "[17|71]").
enter("Vittorio_Veneto_2_490", "[17|71]", 0).
exit("Vittorio_Veneto_2_490", "[17|71]", 80).
enter("Vittorio_Veneto_2_490", "67", 80).
exit("Vittorio_Veneto_2_490", "67", 95).
enter("Vittorio_Veneto_2_490", "[80|127]", 95).
exit("Vittorio_Veneto_2_490", "[80|127]", 160).
enter("Vittorio_Veneto_2_490", "(77[1][0])", 160).
exit("Vittorio_Veneto_2_490", "(77[1][0])", 180).
enter("Vittorio_Veneto_2_490", "77[1][1]", 180).
exit("Vittorio_Veneto_2_490", "77[1][1]", 240).
origin("Silvani_1_1415", "15").
enter("Silvani_1_1415", "15", 0).
exit("Silvani_1_1415", "15", 160).
enter("Silvani_1_1415", "24", 160).
exit("Silvani_1_1415", "24", 175).
enter("Silvani_1_1415", "[22|59]", 175).
exit("Silvani_1_1415", "[22|59]", 220).
enter("Silvani_1_1415", "(53cd|53[0]|53[1][0])", 220).
exit("Silvani_1_1415", "(53cd|53[0]|53[1][0])", 240).
enter("Silvani_1_1415", "79", 240).
exit("Silvani_1_1415", "79", 290).
enter("Silvani_1_1415", "[68|11]", 290).
exit("Silvani_1_1415", "[68|11]", 355).
enter("Silvani_1_1415", "86", 355).
exit("Silvani_1_1415", "86", 560).
origin("XXI_Aprile_94_630", "1b").
enter("XXI_Aprile_94_630", "1b", 0).
exit("XXI_Aprile_94_630", "1b", 60).
enter("XXI_Aprile_94_630", "1", 60).
exit("XXI_Aprile_94_630", "1", 95).
enter("XXI_Aprile_94_630", "204a[0]", 95).
exit("XXI_Aprile_94_630", "204a[0]", 215).
enter("XXI_Aprile_94_630", "204b[0]", 215).
exit("XXI_Aprile_94_630", "204b[0]", 220).
enter("XXI_Aprile_94_630", "54", 220).
exit("XXI_Aprile_94_630", "54", 245).
origin("Costa_70_1053", "209").
enter("Costa_70_1053", "209", 0).
exit("Costa_70_1053", "209", 40).
origin("Vittorio_Veneto_2_501", "[17|71]").
enter("Vittorio_Veneto_2_501", "[17|71]", 0).
exit("Vittorio_Veneto_2_501", "[17|71]", 80).
enter("Vittorio_Veneto_2_501", "67", 80).
exit("Vittorio_Veneto_2_501", "67", 110).
enter("Vittorio_Veneto_2_501", "[80|127]", 110).
exit("Vittorio_Veneto_2_501", "[80|127]", 175).
enter("Vittorio_Veneto_2_501", "(77[1][0])", 175).
exit("Vittorio_Veneto_2_501", "(77[1][0])", 195).
enter("Vittorio_Veneto_2_501", "77[1][1]", 195).
exit("Vittorio_Veneto_2_501", "77[1][1]", 255).
origin("Togliatti_9_482", "69").
enter("Togliatti_9_482", "69", 0).
exit("Togliatti_9_482", "69", 95).
enter("Togliatti_9_482", "161", 95).
exit("Togliatti_9_482", "161", 145).
enter("Togliatti_9_482", "122", 145).
exit("Togliatti_9_482", "122", 200).
enter("Togliatti_9_482", "1b", 200).
exit("Togliatti_9_482", "1b", 260).
enter("Togliatti_9_482", "1", 260).
exit("Togliatti_9_482", "1", 295).
enter("Togliatti_9_482", "204a[0]", 295).
exit("Togliatti_9_482", "204a[0]", 415).
enter("Togliatti_9_482", "204b[0]", 415).
exit("Togliatti_9_482", "204b[0]", 420).
enter("Togliatti_9_482", "54", 420).
exit("Togliatti_9_482", "54", 445).
origin("Togliatti_10_558", "85").
enter("Togliatti_10_558", "85", 0).
exit("Togliatti_10_558", "85", 70).
enter("Togliatti_10_558", "72[0]", 70).
exit("Togliatti_10_558", "72[0]", 145).
enter("Togliatti_10_558", "72[1]", 145).
exit("Togliatti_10_558", "72[1]", 185).
enter("Togliatti_10_558", "69", 185).
exit("Togliatti_10_558", "69", 280).
enter("Togliatti_10_558", "161", 280).
exit("Togliatti_10_558", "161", 330).
enter("Togliatti_10_558", "122", 330).
exit("Togliatti_10_558", "122", 430).
enter("Togliatti_10_558", "1b", 430).
exit("Togliatti_10_558", "1b", 490).
enter("Togliatti_10_558", "1", 490).
exit("Togliatti_10_558", "1", 525).
enter("Togliatti_10_558", "204a[0]", 525).
exit("Togliatti_10_558", "204a[0]", 645).
enter("Togliatti_10_558", "204b[0]", 645).
exit("Togliatti_10_558", "204b[0]", 650).
enter("Togliatti_10_558", "204[1][0]", 650).
exit("Togliatti_10_558", "204[1][0]", 685).
enter("Togliatti_10_558", "204[1][1]", 685).
exit("Togliatti_10_558", "204[1][1]", 720).
origin("Costa_200_1287", "122").
enter("Costa_200_1287", "122", 0).
exit("Costa_200_1287", "122", 100).
enter("Costa_200_1287", "1b", 100).
exit("Costa_200_1287", "1b", 160).
enter("Costa_200_1287", "1", 160).
exit("Costa_200_1287", "1", 195).
enter("Costa_200_1287", "204a[0]", 195).
exit("Costa_200_1287", "204a[0]", 315).
enter("Costa_200_1287", "204b[0]", 315).
exit("Costa_200_1287", "204b[0]", 320).
enter("Costa_200_1287", "204[1][0]", 320).
exit("Costa_200_1287", "204[1][0]", 355).
enter("Costa_200_1287", "204[1][1]", 355).
exit("Costa_200_1287", "204[1][1]", 390).
origin("Vittorio_Veneto_10_431", "161").
enter("Vittorio_Veneto_10_431", "161", 0).
exit("Vittorio_Veneto_10_431", "161", 50).
enter("Vittorio_Veneto_10_431", "122", 50).
exit("Vittorio_Veneto_10_431", "122", 150).
enter("Vittorio_Veneto_10_431", "1b", 150).
exit("Vittorio_Veneto_10_431", "1b", 210).
enter("Vittorio_Veneto_10_431", "1", 210).
exit("Vittorio_Veneto_10_431", "1", 245).
enter("Vittorio_Veneto_10_431", "204a[0]", 245).
exit("Vittorio_Veneto_10_431", "204a[0]", 365).
enter("Vittorio_Veneto_10_431", "204b[0]", 365).
exit("Vittorio_Veneto_10_431", "204b[0]", 370).
enter("Vittorio_Veneto_10_431", "204[1][0]", 370).
exit("Vittorio_Veneto_10_431", "204[1][0]", 405).
enter("Vittorio_Veneto_10_431", "204[1][1]", 405).
exit("Vittorio_Veneto_10_431", "204[1][1]", 440).
origin("Silvani_1_1358", "[189[0]|189[1][0]+20000|189[1][1]]").
enter("Silvani_1_1358", "[189[0]|189[1][0]+20000|189[1][1]]", 0).
exit("Silvani_1_1358", "[189[0]|189[1][0]+20000|189[1][1]]", 250).
enter("Silvani_1_1358", "191", 250).
exit("Silvani_1_1358", "191", 295).
enter("Silvani_1_1358", "[17|71]", 295).
exit("Silvani_1_1358", "[17|71]", 345).
enter("Silvani_1_1358", "86", 345).
exit("Silvani_1_1358", "86", 550).
origin("Togliatti_10_560", "85").
enter("Togliatti_10_560", "85", 0).
exit("Togliatti_10_560", "85", 110).
enter("Togliatti_10_560", "72[0]", 110).
exit("Togliatti_10_560", "72[0]", 185).
enter("Togliatti_10_560", "72[1]", 185).
exit("Togliatti_10_560", "72[1]", 225).
enter("Togliatti_10_560", "69", 225).
exit("Togliatti_10_560", "69", 320).
enter("Togliatti_10_560", "161", 320).
exit("Togliatti_10_560", "161", 370).
enter("Togliatti_10_560", "122", 370).
exit("Togliatti_10_560", "122", 470).
enter("Togliatti_10_560", "1b", 470).
exit("Togliatti_10_560", "1b", 530).
enter("Togliatti_10_560", "1", 530).
exit("Togliatti_10_560", "1", 565).
enter("Togliatti_10_560", "204a[0]", 565).
exit("Togliatti_10_560", "204a[0]", 685).
enter("Togliatti_10_560", "204b[0]", 685).
exit("Togliatti_10_560", "204b[0]", 690).
enter("Togliatti_10_560", "204[1][0]", 690).
exit("Togliatti_10_560", "204[1][0]", 725).
enter("Togliatti_10_560", "204[1][1]", 725).
exit("Togliatti_10_560", "204[1][1]", 760).
origin("Togliatti_9_390", "122").
enter("Togliatti_9_390", "122", 0).
exit("Togliatti_9_390", "122", 280).
enter("Togliatti_9_390", "1b", 280).
exit("Togliatti_9_390", "1b", 1625).
enter("Togliatti_9_390", "1", 1625).
exit("Togliatti_9_390", "1", 1745).
enter("Togliatti_9_390", "204a[0]", 1745).
exit("Togliatti_9_390", "204a[0]", 1840).
enter("Togliatti_9_390", "204b[0]", 1840).
exit("Togliatti_9_390", "204b[0]", 1855).
enter("Togliatti_9_390", "54", 1855).
exit("Togliatti_9_390", "54", 1885).
origin("Costa_70_1149", "117").
enter("Costa_70_1149", "117", 0).
exit("Costa_70_1149", "117", 55).
enter("Costa_70_1149", "209", 55).
exit("Costa_70_1149", "209", 360).
origin("Vittorio_Veneto_2_520", "224[1]").
enter("Vittorio_Veneto_2_520", "224[1]", 0).
exit("Vittorio_Veneto_2_520", "224[1]", 60).
enter("Vittorio_Veneto_2_520", "[181|18]", 60).
exit("Vittorio_Veneto_2_520", "[181|18]", 135).
enter("Vittorio_Veneto_2_520", "[17|71]", 135).
exit("Vittorio_Veneto_2_520", "[17|71]", 190).
enter("Vittorio_Veneto_2_520", "67", 190).
exit("Vittorio_Veneto_2_520", "67", 220).
enter("Vittorio_Veneto_2_520", "[80|127]", 220).
exit("Vittorio_Veneto_2_520", "[80|127]", 285).
enter("Vittorio_Veneto_2_520", "(77[1][0])", 285).
exit("Vittorio_Veneto_2_520", "(77[1][0])", 305).
enter("Vittorio_Veneto_2_520", "77[1][1]", 305).
exit("Vittorio_Veneto_2_520", "77[1][1]", 365).
origin("Togliatti_3_2344", "85").
enter("Togliatti_3_2344", "85", 0).
exit("Togliatti_3_2344", "85", 70).
enter("Togliatti_3_2344", "72[0]", 70).
exit("Togliatti_3_2344", "72[0]", 405).
enter("Togliatti_3_2344", "72[1]", 405).
exit("Togliatti_3_2344", "72[1]", 550).
enter("Togliatti_3_2344", "69", 550).
exit("Togliatti_3_2344", "69", 605).
enter("Togliatti_3_2344", "161", 605).
exit("Togliatti_3_2344", "161", 635).
enter("Togliatti_3_2344", "194", 635).
exit("Togliatti_3_2344", "194", 840).
enter("Togliatti_3_2344", "91", 840).
exit("Togliatti_3_2344", "91", 920).
enter("Togliatti_3_2344", "173", 920).
exit("Togliatti_3_2344", "173", 950).
enter("Togliatti_3_2344", "62", 950).
exit("Togliatti_3_2344", "62", 990).
enter("Togliatti_3_2344", "159", 990).
exit("Togliatti_3_2344", "159", 1015).
enter("Togliatti_3_2344", "42", 1015).
exit("Togliatti_3_2344", "42", 1085).
enter("Togliatti_3_2344", "39", 1085).
exit("Togliatti_3_2344", "39", 1110).
enter("Togliatti_3_2344", "35", 1110).
exit("Togliatti_3_2344", "35", 1130).
enter("Togliatti_3_2344", "38", 1130).
exit("Togliatti_3_2344", "38", 1255).
enter("Togliatti_3_2344", "15", 1255).
exit("Togliatti_3_2344", "15", 1405).
enter("Togliatti_3_2344", "14", 1405).
exit("Togliatti_3_2344", "14", 1990).
origin("Togliatti_10_477", "69").
enter("Togliatti_10_477", "69", 0).
exit("Togliatti_10_477", "69", 95).
enter("Togliatti_10_477", "161", 95).
exit("Togliatti_10_477", "161", 145).
enter("Togliatti_10_477", "122", 145).
exit("Togliatti_10_477", "122", 200).
enter("Togliatti_10_477", "1b", 200).
exit("Togliatti_10_477", "1b", 260).
enter("Togliatti_10_477", "1", 260).
exit("Togliatti_10_477", "1", 295).
enter("Togliatti_10_477", "204a[0]", 295).
exit("Togliatti_10_477", "204a[0]", 415).
enter("Togliatti_10_477", "204b[0]", 415).
exit("Togliatti_10_477", "204b[0]", 420).
enter("Togliatti_10_477", "204[1][0]", 420).
exit("Togliatti_10_477", "204[1][0]", 455).
enter("Togliatti_10_477", "204[1][1]", 455).
exit("Togliatti_10_477", "204[1][1]", 490).
origin("Vittorio_Veneto_73_559", "224[0]").
enter("Vittorio_Veneto_73_559", "224[0]", 0).
exit("Vittorio_Veneto_73_559", "224[0]", 135).
enter("Vittorio_Veneto_73_559", "224[1]", 135).
exit("Vittorio_Veneto_73_559", "224[1]", 195).
enter("Vittorio_Veneto_73_559", "[181|18]", 195).
exit("Vittorio_Veneto_73_559", "[181|18]", 275).
enter("Vittorio_Veneto_73_559", "69", 275).
exit("Vittorio_Veneto_73_559", "69", 370).
enter("Vittorio_Veneto_73_559", "161", 370).
exit("Vittorio_Veneto_73_559", "161", 390).
enter("Vittorio_Veneto_73_559", "122", 390).
exit("Vittorio_Veneto_73_559", "122", 440).
enter("Vittorio_Veneto_73_559", "[3|2]", 440).
exit("Vittorio_Veneto_73_559", "[3|2]", 475).
enter("Vittorio_Veneto_73_559", "[202|34]", 475).
exit("Vittorio_Veneto_73_559", "[202|34]", 530).
enter("Vittorio_Veneto_73_559", "113", 530).
exit("Vittorio_Veneto_73_559", "113", 570).
enter("Vittorio_Veneto_73_559", "209", 570).
exit("Vittorio_Veneto_73_559", "209", 855).
origin("Togliatti_10_618", "194").
enter("Togliatti_10_618", "194", 0).
exit("Togliatti_10_618", "194", 75).
enter("Togliatti_10_618", "91", 75).
exit("Togliatti_10_618", "91", 95).
enter("Togliatti_10_618", "173", 95).
exit("Togliatti_10_618", "173", 135).
enter("Togliatti_10_618", "58[0]", 135).
exit("Togliatti_10_618", "58[0]", 200).
enter("Togliatti_10_618", "58[1]", 200).
exit("Togliatti_10_618", "58[1]", 215).
enter("Togliatti_10_618", "197", 215).
exit("Togliatti_10_618", "197", 235).
enter("Togliatti_10_618", "[109[0]|109[1][0]+20003|109[1][1]]", 235).
exit("Togliatti_10_618", "[109[0]|109[1][0]+20003|109[1][1]]", 270).
enter("Togliatti_10_618", "[116|46]", 270).
exit("Togliatti_10_618", "[116|46]", 315).
enter("Togliatti_10_618", "201", 315).
exit("Togliatti_10_618", "201", 365).
enter("Togliatti_10_618", "201c", 365).
exit("Togliatti_10_618", "201c", 400).
enter("Togliatti_10_618", "204a[0]", 400).
exit("Togliatti_10_618", "204a[0]", 545).
enter("Togliatti_10_618", "204b[0]", 545).
exit("Togliatti_10_618", "204b[0]", 1430).
enter("Togliatti_10_618", "204[1][0]", 1430).
exit("Togliatti_10_618", "204[1][0]", 1490).
enter("Togliatti_10_618", "204[1][1]", 1490).
exit("Togliatti_10_618", "204[1][1]", 1725).
origin("Costa_70_1368", "91").
enter("Costa_70_1368", "91", 0).
exit("Costa_70_1368", "91", 20).
enter("Costa_70_1368", "186", 20).
exit("Costa_70_1368", "186", 50).
enter("Costa_70_1368", "[109[0]|109[1][0]+20003|109[1][1]]", 50).
exit("Costa_70_1368", "[109[0]|109[1][0]+20003|109[1][1]]", 85).
enter("Costa_70_1368", "[116|46]", 85).
exit("Costa_70_1368", "[116|46]", 150).
enter("Costa_70_1368", "113", 150).
exit("Costa_70_1368", "113", 220).
enter("Costa_70_1368", "209", 220).
exit("Costa_70_1368", "209", 270).
origin("Silvani_3_1462", "15").
enter("Silvani_3_1462", "15", 0).
exit("Silvani_3_1462", "15", 75).
enter("Silvani_3_1462", "14", 75).
exit("Silvani_3_1462", "14", 115).
origin("Pepoli_3_2087", "57[1]").
enter("Pepoli_3_2087", "57[1]", 0).
exit("Pepoli_3_2087", "57[1]", 20).
enter("Pepoli_3_2087", "62", 20).
exit("Pepoli_3_2087", "62", 120).
enter("Pepoli_3_2087", "159", 120).
exit("Pepoli_3_2087", "159", 185).
enter("Pepoli_3_2087", "42", 185).
exit("Pepoli_3_2087", "42", 215).
enter("Pepoli_3_2087", "39", 215).
exit("Pepoli_3_2087", "39", 255).
enter("Pepoli_3_2087", "35", 255).
exit("Pepoli_3_2087", "35", 315).
enter("Pepoli_3_2087", "38", 315).
exit("Pepoli_3_2087", "38", 335).
enter("Pepoli_3_2087", "33", 335).
exit("Pepoli_3_2087", "33", 345).
enter("Pepoli_3_2087", "10", 345).
exit("Pepoli_3_2087", "10", 1340).
origin("Togliatti_71_709", "m90").
enter("Togliatti_71_709", "m90", 0).
exit("Togliatti_71_709", "m90", 5).
enter("Togliatti_71_709", "[89[0]|20002+89[1][0]|89[1][1]]", 5).
exit("Togliatti_71_709", "[89[0]|20002+89[1][0]|89[1][1]]", 35).
enter("Togliatti_71_709", "91", 35).
exit("Togliatti_71_709", "91", 50).
enter("Togliatti_71_709", "186", 50).
exit("Togliatti_71_709", "186", 55).
enter("Togliatti_71_709", "[109[0]|109[1][0]+20003|109[1][1]]", 55).
exit("Togliatti_71_709", "[109[0]|109[1][0]+20003|109[1][1]]", 65).
enter("Togliatti_71_709", "[116|46]", 65).
exit("Togliatti_71_709", "[116|46]", 120).
enter("Togliatti_71_709", "113", 120).
exit("Togliatti_71_709", "113", 160).
enter("Togliatti_71_709", "209", 160).
exit("Togliatti_71_709", "209", 745).
origin("Togliatti_10_663", "[89[0]|20002+89[1][0]|89[1][1]]").
enter("Togliatti_10_663", "[89[0]|20002+89[1][0]|89[1][1]]", 0).
exit("Togliatti_10_663", "[89[0]|20002+89[1][0]|89[1][1]]", 25).
enter("Togliatti_10_663", "91", 25).
exit("Togliatti_10_663", "91", 30).
enter("Togliatti_10_663", "186", 30).
exit("Togliatti_10_663", "186", 35).
enter("Togliatti_10_663", "[109[0]|109[1][0]+20003|109[1][1]]", 35).
exit("Togliatti_10_663", "[109[0]|109[1][0]+20003|109[1][1]]", 80).
enter("Togliatti_10_663", "[116|46]", 80).
exit("Togliatti_10_663", "[116|46]", 165).
enter("Togliatti_10_663", "201", 165).
exit("Togliatti_10_663", "201", 250).
enter("Togliatti_10_663", "201c", 250).
exit("Togliatti_10_663", "201c", 285).
enter("Togliatti_10_663", "204a[0]", 285).
exit("Togliatti_10_663", "204a[0]", 1215).
enter("Togliatti_10_663", "204b[0]", 1215).
exit("Togliatti_10_663", "204b[0]", 1220).
enter("Togliatti_10_663", "204[1][0]", 1220).
exit("Togliatti_10_663", "204[1][0]", 1285).
enter("Togliatti_10_663", "204[1][1]", 1285).
exit("Togliatti_10_663", "204[1][1]", 1710).
origin("Togliatti_10_602", "[116|46]").
enter("Togliatti_10_602", "[116|46]", 0).
exit("Togliatti_10_602", "[116|46]", 45).
enter("Togliatti_10_602", "201", 45).
exit("Togliatti_10_602", "201", 95).
enter("Togliatti_10_602", "201c", 95).
exit("Togliatti_10_602", "201c", 140).
enter("Togliatti_10_602", "204a[0]", 140).
exit("Togliatti_10_602", "204a[0]", 525).
enter("Togliatti_10_602", "204b[0]", 525).
exit("Togliatti_10_602", "204b[0]", 1270).
enter("Togliatti_10_602", "204[1][0]", 1270).
exit("Togliatti_10_602", "204[1][0]", 1310).
enter("Togliatti_10_602", "204[1][1]", 1310).
exit("Togliatti_10_602", "204[1][1]", 1525).
origin("Togliatti_11_611", "[109[0]|109[1][0]+20003|109[1][1]]").
enter("Togliatti_11_611", "[109[0]|109[1][0]+20003|109[1][1]]", 0).
exit("Togliatti_11_611", "[109[0]|109[1][0]+20003|109[1][1]]", 30).
enter("Togliatti_11_611", "[116|46]", 30).
exit("Togliatti_11_611", "[116|46]", 75).
enter("Togliatti_11_611", "201", 75).
exit("Togliatti_11_611", "201", 130).
enter("Togliatti_11_611", "201c", 130).
exit("Togliatti_11_611", "201c", 225).
enter("Togliatti_11_611", "204a[0]", 225).
exit("Togliatti_11_611", "204a[0]", 330).
enter("Togliatti_11_611", "124", 330).
exit("Togliatti_11_611", "124", 1495).
origin("Vittorio_Veneto_10_427", "161").
enter("Vittorio_Veneto_10_427", "161", 0).
exit("Vittorio_Veneto_10_427", "161", 50).
enter("Vittorio_Veneto_10_427", "122", 50).
exit("Vittorio_Veneto_10_427", "122", 150).
enter("Vittorio_Veneto_10_427", "1b", 150).
exit("Vittorio_Veneto_10_427", "1b", 210).
enter("Vittorio_Veneto_10_427", "1", 210).
exit("Vittorio_Veneto_10_427", "1", 245).
enter("Vittorio_Veneto_10_427", "204a[0]", 245).
exit("Vittorio_Veneto_10_427", "204a[0]", 365).
enter("Vittorio_Veneto_10_427", "204b[0]", 365).
exit("Vittorio_Veneto_10_427", "204b[0]", 370).
enter("Vittorio_Veneto_10_427", "204[1][0]", 370).
exit("Vittorio_Veneto_10_427", "204[1][0]", 405).
enter("Vittorio_Veneto_10_427", "204[1][1]", 405).
exit("Vittorio_Veneto_10_427", "204[1][1]", 440).
origin("Vittorio_Veneto_2_554", "224[0]").
enter("Vittorio_Veneto_2_554", "224[0]", 0).
exit("Vittorio_Veneto_2_554", "224[0]", 80).
enter("Vittorio_Veneto_2_554", "224[1]", 80).
exit("Vittorio_Veneto_2_554", "224[1]", 135).
enter("Vittorio_Veneto_2_554", "[181|18]", 135).
exit("Vittorio_Veneto_2_554", "[181|18]", 185).
enter("Vittorio_Veneto_2_554", "[17|71]", 185).
exit("Vittorio_Veneto_2_554", "[17|71]", 235).
enter("Vittorio_Veneto_2_554", "67", 235).
exit("Vittorio_Veneto_2_554", "67", 245).
enter("Vittorio_Veneto_2_554", "[80|127]", 245).
exit("Vittorio_Veneto_2_554", "[80|127]", 320).
enter("Vittorio_Veneto_2_554", "(77[1][0])", 320).
exit("Vittorio_Veneto_2_554", "(77[1][0])", 345).
enter("Vittorio_Veneto_2_554", "77[1][1]", 345).
exit("Vittorio_Veneto_2_554", "77[1][1]", 980).
origin("Vittorio_Veneto_10_488", "69").
enter("Vittorio_Veneto_10_488", "69", 0).
exit("Vittorio_Veneto_10_488", "69", 95).
enter("Vittorio_Veneto_10_488", "161", 95).
exit("Vittorio_Veneto_10_488", "161", 145).
enter("Vittorio_Veneto_10_488", "122", 145).
exit("Vittorio_Veneto_10_488", "122", 245).
enter("Vittorio_Veneto_10_488", "1b", 245).
exit("Vittorio_Veneto_10_488", "1b", 305).
enter("Vittorio_Veneto_10_488", "1", 305).
exit("Vittorio_Veneto_10_488", "1", 340).
enter("Vittorio_Veneto_10_488", "204a[0]", 340).
exit("Vittorio_Veneto_10_488", "204a[0]", 460).
enter("Vittorio_Veneto_10_488", "204b[0]", 460).
exit("Vittorio_Veneto_10_488", "204b[0]", 465).
enter("Vittorio_Veneto_10_488", "204[1][0]", 465).
exit("Vittorio_Veneto_10_488", "204[1][0]", 500).
enter("Vittorio_Veneto_10_488", "204[1][1]", 500).
exit("Vittorio_Veneto_10_488", "204[1][1]", 535).
origin("Togliatti_10_564", "85").
enter("Togliatti_10_564", "85", 0).
exit("Togliatti_10_564", "85", 60).
enter("Togliatti_10_564", "72[0]", 60).
exit("Togliatti_10_564", "72[0]", 135).
enter("Togliatti_10_564", "72[1]", 135).
exit("Togliatti_10_564", "72[1]", 175).
enter("Togliatti_10_564", "69", 175).
exit("Togliatti_10_564", "69", 270).
enter("Togliatti_10_564", "161", 270).
exit("Togliatti_10_564", "161", 295).
enter("Togliatti_10_564", "122", 295).
exit("Togliatti_10_564", "122", 395).
enter("Togliatti_10_564", "1b", 395).
exit("Togliatti_10_564", "1b", 455).
enter("Togliatti_10_564", "1", 455).
exit("Togliatti_10_564", "1", 490).
enter("Togliatti_10_564", "204a[0]", 490).
exit("Togliatti_10_564", "204a[0]", 610).
enter("Togliatti_10_564", "204b[0]", 610).
exit("Togliatti_10_564", "204b[0]", 615).
enter("Togliatti_10_564", "204[1][0]", 615).
exit("Togliatti_10_564", "204[1][0]", 650).
enter("Togliatti_10_564", "204[1][1]", 650).
exit("Togliatti_10_564", "204[1][1]", 685).
origin("Togliatti_3_2129", "62").
enter("Togliatti_3_2129", "62", 0).
exit("Togliatti_3_2129", "62", 55).
enter("Togliatti_3_2129", "159", 55).
exit("Togliatti_3_2129", "159", 190).
enter("Togliatti_3_2129", "42", 190).
exit("Togliatti_3_2129", "42", 205).
enter("Togliatti_3_2129", "39", 205).
exit("Togliatti_3_2129", "39", 215).
enter("Togliatti_3_2129", "35", 215).
exit("Togliatti_3_2129", "35", 245).
enter("Togliatti_3_2129", "38", 245).
exit("Togliatti_3_2129", "38", 305).
enter("Togliatti_3_2129", "33", 305).
exit("Togliatti_3_2129", "33", 355).
enter("Togliatti_3_2129", "10", 355).
exit("Togliatti_3_2129", "10", 1460).
origin("Togliatti_10_463", "161").
enter("Togliatti_10_463", "161", 0).
exit("Togliatti_10_463", "161", 50).
enter("Togliatti_10_463", "122", 50).
exit("Togliatti_10_463", "122", 105).
enter("Togliatti_10_463", "1b", 105).
exit("Togliatti_10_463", "1b", 165).
enter("Togliatti_10_463", "1", 165).
exit("Togliatti_10_463", "1", 200).
enter("Togliatti_10_463", "204a[0]", 200).
exit("Togliatti_10_463", "204a[0]", 320).
enter("Togliatti_10_463", "204b[0]", 320).
exit("Togliatti_10_463", "204b[0]", 325).
enter("Togliatti_10_463", "204[1][0]", 325).
exit("Togliatti_10_463", "204[1][0]", 360).
enter("Togliatti_10_463", "204[1][1]", 360).
exit("Togliatti_10_463", "204[1][1]", 395).
origin("Togliatti_10_688", "85").
enter("Togliatti_10_688", "85", 0).
exit("Togliatti_10_688", "85", 60).
enter("Togliatti_10_688", "72[0]", 60).
exit("Togliatti_10_688", "72[0]", 135).
enter("Togliatti_10_688", "72[1]", 135).
exit("Togliatti_10_688", "72[1]", 175).
enter("Togliatti_10_688", "69", 175).
exit("Togliatti_10_688", "69", 270).
enter("Togliatti_10_688", "161", 270).
exit("Togliatti_10_688", "161", 295).
enter("Togliatti_10_688", "122", 295).
exit("Togliatti_10_688", "122", 395).
enter("Togliatti_10_688", "1b", 395).
exit("Togliatti_10_688", "1b", 455).
enter("Togliatti_10_688", "1", 455).
exit("Togliatti_10_688", "1", 490).
enter("Togliatti_10_688", "204a[0]", 490).
exit("Togliatti_10_688", "204a[0]", 610).
enter("Togliatti_10_688", "204b[0]", 610).
exit("Togliatti_10_688", "204b[0]", 615).
enter("Togliatti_10_688", "204[1][0]", 615).
exit("Togliatti_10_688", "204[1][0]", 650).
enter("Togliatti_10_688", "204[1][1]", 650).
exit("Togliatti_10_688", "204[1][1]", 685).
origin("Togliatti_3_2120", "62").
enter("Togliatti_3_2120", "62", 0).
exit("Togliatti_3_2120", "62", 340).
enter("Togliatti_3_2120", "159", 340).
exit("Togliatti_3_2120", "159", 450).
enter("Togliatti_3_2120", "42", 450).
exit("Togliatti_3_2120", "42", 475).
enter("Togliatti_3_2120", "39", 475).
exit("Togliatti_3_2120", "39", 495).
enter("Togliatti_3_2120", "35", 495).
exit("Togliatti_3_2120", "35", 505).
enter("Togliatti_3_2120", "38", 505).
exit("Togliatti_3_2120", "38", 560).
enter("Togliatti_3_2120", "33", 560).
exit("Togliatti_3_2120", "33", 610).
enter("Togliatti_3_2120", "10", 610).
exit("Togliatti_3_2120", "10", 905).
origin("Togliatti_10_615", "85").
enter("Togliatti_10_615", "85", 0).
exit("Togliatti_10_615", "85", 60).
enter("Togliatti_10_615", "72[0]", 60).
exit("Togliatti_10_615", "72[0]", 135).
enter("Togliatti_10_615", "72[1]", 135).
exit("Togliatti_10_615", "72[1]", 175).
enter("Togliatti_10_615", "69", 175).
exit("Togliatti_10_615", "69", 270).
enter("Togliatti_10_615", "161", 270).
exit("Togliatti_10_615", "161", 295).
enter("Togliatti_10_615", "122", 295).
exit("Togliatti_10_615", "122", 395).
enter("Togliatti_10_615", "1b", 395).
exit("Togliatti_10_615", "1b", 455).
enter("Togliatti_10_615", "1", 455).
exit("Togliatti_10_615", "1", 490).
enter("Togliatti_10_615", "204a[0]", 490).
exit("Togliatti_10_615", "204a[0]", 610).
enter("Togliatti_10_615", "204b[0]", 610).
exit("Togliatti_10_615", "204b[0]", 615).
enter("Togliatti_10_615", "204[1][0]", 615).
exit("Togliatti_10_615", "204[1][0]", 650).
enter("Togliatti_10_615", "204[1][1]", 650).
exit("Togliatti_10_615", "204[1][1]", 685).
origin("Togliatti_10_695", "61").
enter("Togliatti_10_695", "61", 0).
exit("Togliatti_10_695", "61", 20).
enter("Togliatti_10_695", "58[0]", 20).
exit("Togliatti_10_695", "58[0]", 30).
enter("Togliatti_10_695", "58[1]", 30).
exit("Togliatti_10_695", "58[1]", 45).
enter("Togliatti_10_695", "197", 45).
exit("Togliatti_10_695", "197", 80).
enter("Togliatti_10_695", "[109[0]|109[1][0]+20003|109[1][1]]", 80).
exit("Togliatti_10_695", "[109[0]|109[1][0]+20003|109[1][1]]", 90).
enter("Togliatti_10_695", "[116|46]", 90).
exit("Togliatti_10_695", "[116|46]", 135).
enter("Togliatti_10_695", "201", 135).
exit("Togliatti_10_695", "201", 485).
enter("Togliatti_10_695", "201c", 485).
exit("Togliatti_10_695", "201c", 520).
enter("Togliatti_10_695", "204a[0]", 520).
exit("Togliatti_10_695", "204a[0]", 1560).
enter("Togliatti_10_695", "204b[0]", 1560).
exit("Togliatti_10_695", "204b[0]", 1650).
enter("Togliatti_10_695", "204[1][0]", 1650).
exit("Togliatti_10_695", "204[1][0]", 1685).
enter("Togliatti_10_695", "204[1][1]", 1685).
exit("Togliatti_10_695", "204[1][1]", 2490).
origin("Vittorio_Veneto_1_541", "224[0]").
enter("Vittorio_Veneto_1_541", "224[0]", 0).
exit("Vittorio_Veneto_1_541", "224[0]", 140).
enter("Vittorio_Veneto_1_541", "224[1]", 140).
exit("Vittorio_Veneto_1_541", "224[1]", 200).
enter("Vittorio_Veneto_1_541", "[181|18]", 200).
exit("Vittorio_Veneto_1_541", "[181|18]", 275).
enter("Vittorio_Veneto_1_541", "[17|71]", 275).
exit("Vittorio_Veneto_1_541", "[17|71]", 355).
enter("Vittorio_Veneto_1_541", "86", 355).
exit("Vittorio_Veneto_1_541", "86", 385).
origin("Togliatti_10_595", "161").
enter("Togliatti_10_595", "161", 0).
exit("Togliatti_10_595", "161", 25).
enter("Togliatti_10_595", "122", 25).
exit("Togliatti_10_595", "122", 1010).
enter("Togliatti_10_595", "1b", 1010).
exit("Togliatti_10_595", "1b", 1815).
enter("Togliatti_10_595", "1", 1815).
exit("Togliatti_10_595", "1", 1950).
enter("Togliatti_10_595", "204a[0]", 1950).
exit("Togliatti_10_595", "204a[0]", 2060).
enter("Togliatti_10_595", "204b[0]", 2060).
exit("Togliatti_10_595", "204b[0]", 2120).
enter("Togliatti_10_595", "204[1][0]", 2120).
exit("Togliatti_10_595", "204[1][0]", 2155).
enter("Togliatti_10_595", "204[1][1]", 2155).
exit("Togliatti_10_595", "204[1][1]", 2560).
origin("Audinot_12_147", "131").
enter("Audinot_12_147", "131", 0).
exit("Audinot_12_147", "131", 45).
enter("Audinot_12_147", "65", 45).
exit("Audinot_12_147", "65", 95).
enter("Audinot_12_147", "57[0]", 95).
exit("Audinot_12_147", "57[0]", 120).
enter("Audinot_12_147", "57[1]", 120).
exit("Audinot_12_147", "57[1]", 145).
enter("Audinot_12_147", "62", 145).
exit("Audinot_12_147", "62", 275).
enter("Audinot_12_147", "159", 275).
exit("Audinot_12_147", "159", 330).
enter("Audinot_12_147", "42", 330).
exit("Audinot_12_147", "42", 335).
enter("Audinot_12_147", "39", 335).
exit("Audinot_12_147", "39", 400).
enter("Audinot_12_147", "35", 400).
exit("Audinot_12_147", "35", 450).
enter("Audinot_12_147", "38", 450).
exit("Audinot_12_147", "38", 470).
enter("Audinot_12_147", "15", 470).
exit("Audinot_12_147", "15", 530).
enter("Audinot_12_147", "24", 530).
exit("Audinot_12_147", "24", 595).
enter("Audinot_12_147", "[22|59]", 595).
exit("Audinot_12_147", "[22|59]", 650).
enter("Audinot_12_147", "(53cd|53[0]|53[1][0])", 650).
exit("Audinot_12_147", "(53cd|53[0]|53[1][0])", 675).
enter("Audinot_12_147", "79", 675).
exit("Audinot_12_147", "79", 690).
enter("Audinot_12_147", "[68|11]", 690).
exit("Audinot_12_147", "[68|11]", 730).
enter("Audinot_12_147", "84", 730).
exit("Audinot_12_147", "84", 745).
enter("Audinot_12_147", "180", 745).
exit("Audinot_12_147", "180", 795).
origin("Togliatti_10_711", "85").
enter("Togliatti_10_711", "85", 0).
exit("Togliatti_10_711", "85", 70).
enter("Togliatti_10_711", "72[0]", 70).
exit("Togliatti_10_711", "72[0]", 180).
enter("Togliatti_10_711", "72[1]", 180).
exit("Togliatti_10_711", "72[1]", 220).
enter("Togliatti_10_711", "69", 220).
exit("Togliatti_10_711", "69", 315).
enter("Togliatti_10_711", "161", 315).
exit("Togliatti_10_711", "161", 340).
enter("Togliatti_10_711", "122", 340).
exit("Togliatti_10_711", "122", 440).
enter("Togliatti_10_711", "1b", 440).
exit("Togliatti_10_711", "1b", 500).
enter("Togliatti_10_711", "1", 500).
exit("Togliatti_10_711", "1", 535).
enter("Togliatti_10_711", "204a[0]", 535).
exit("Togliatti_10_711", "204a[0]", 655).
enter("Togliatti_10_711", "204b[0]", 655).
exit("Togliatti_10_711", "204b[0]", 660).
enter("Togliatti_10_711", "204[1][0]", 660).
exit("Togliatti_10_711", "204[1][0]", 695).
enter("Togliatti_10_711", "204[1][1]", 695).
exit("Togliatti_10_711", "204[1][1]", 730).
origin("Togliatti_9_646", "85").
enter("Togliatti_9_646", "85", 0).
exit("Togliatti_9_646", "85", 60).
enter("Togliatti_9_646", "72[0]", 60).
exit("Togliatti_9_646", "72[0]", 135).
enter("Togliatti_9_646", "72[1]", 135).
exit("Togliatti_9_646", "72[1]", 175).
enter("Togliatti_9_646", "69", 175).
exit("Togliatti_9_646", "69", 270).
enter("Togliatti_9_646", "161", 270).
exit("Togliatti_9_646", "161", 295).
enter("Togliatti_9_646", "122", 295).
exit("Togliatti_9_646", "122", 395).
enter("Togliatti_9_646", "1b", 395).
exit("Togliatti_9_646", "1b", 455).
enter("Togliatti_9_646", "1", 455).
exit("Togliatti_9_646", "1", 490).
enter("Togliatti_9_646", "204a[0]", 490).
exit("Togliatti_9_646", "204a[0]", 610).
enter("Togliatti_9_646", "204b[0]", 610).
exit("Togliatti_9_646", "204b[0]", 615).
enter("Togliatti_9_646", "54", 615).
exit("Togliatti_9_646", "54", 640).
origin("Silvani_3_1498", "38").
enter("Silvani_3_1498", "38", 0).
exit("Silvani_3_1498", "38", 60).
enter("Silvani_3_1498", "15", 60).
exit("Silvani_3_1498", "15", 135).
enter("Silvani_3_1498", "14", 135).
exit("Silvani_3_1498", "14", 175).
origin("Silvani_1_1315", "86").
enter("Silvani_1_1315", "86", 0).
exit("Silvani_1_1315", "86", 40).
origin("Togliatti_11_697", "58[1]").
enter("Togliatti_11_697", "58[1]", 0).
exit("Togliatti_11_697", "58[1]", 15).
enter("Togliatti_11_697", "197", 15).
exit("Togliatti_11_697", "197", 45).
enter("Togliatti_11_697", "[109[0]|109[1][0]+20003|109[1][1]]", 45).
exit("Togliatti_11_697", "[109[0]|109[1][0]+20003|109[1][1]]", 60).
enter("Togliatti_11_697", "[116|46]", 60).
exit("Togliatti_11_697", "[116|46]", 105).
enter("Togliatti_11_697", "201", 105).
exit("Togliatti_11_697", "201", 465).
enter("Togliatti_11_697", "201c", 465).
exit("Togliatti_11_697", "201c", 505).
enter("Togliatti_11_697", "204a[0]", 505).
exit("Togliatti_11_697", "204a[0]", 575).
enter("Togliatti_11_697", "124", 575).
exit("Togliatti_11_697", "124", 1305).
origin("Togliatti_10_423", "122").
enter("Togliatti_10_423", "122", 0).
exit("Togliatti_10_423", "122", 55).
enter("Togliatti_10_423", "1b", 55).
exit("Togliatti_10_423", "1b", 115).
enter("Togliatti_10_423", "1", 115).
exit("Togliatti_10_423", "1", 150).
enter("Togliatti_10_423", "204a[0]", 150).
exit("Togliatti_10_423", "204a[0]", 270).
enter("Togliatti_10_423", "204b[0]", 270).
exit("Togliatti_10_423", "204b[0]", 275).
enter("Togliatti_10_423", "204[1][0]", 275).
exit("Togliatti_10_423", "204[1][0]", 310).
enter("Togliatti_10_423", "204[1][1]", 310).
exit("Togliatti_10_423", "204[1][1]", 345).
origin("Togliatti_10_518", "194").
enter("Togliatti_10_518", "194", 0).
exit("Togliatti_10_518", "194", 15).
enter("Togliatti_10_518", "91", 15).
exit("Togliatti_10_518", "91", 35).
enter("Togliatti_10_518", "186", 35).
exit("Togliatti_10_518", "186", 50).
enter("Togliatti_10_518", "[109[0]|109[1][0]+20003|109[1][1]]", 50).
exit("Togliatti_10_518", "[109[0]|109[1][0]+20003|109[1][1]]", 70).
enter("Togliatti_10_518", "[116|46]", 70).
exit("Togliatti_10_518", "[116|46]", 135).
enter("Togliatti_10_518", "201", 135).
exit("Togliatti_10_518", "201", 595).
enter("Togliatti_10_518", "201c", 595).
exit("Togliatti_10_518", "201c", 665).
enter("Togliatti_10_518", "204a[0]", 665).
exit("Togliatti_10_518", "204a[0]", 1285).
enter("Togliatti_10_518", "204b[0]", 1285).
exit("Togliatti_10_518", "204b[0]", 1495).
enter("Togliatti_10_518", "204[1][0]", 1495).
exit("Togliatti_10_518", "204[1][0]", 1530).
enter("Togliatti_10_518", "204[1][1]", 1530).
exit("Togliatti_10_518", "204[1][1]", 1565).
origin("Costa_200_1262", "204a[0]").
enter("Costa_200_1262", "204a[0]", 0).
exit("Costa_200_1262", "204a[0]", 120).
enter("Costa_200_1262", "204b[0]", 120).
exit("Costa_200_1262", "204b[0]", 125).
enter("Costa_200_1262", "204[1][0]", 125).
exit("Costa_200_1262", "204[1][0]", 160).
enter("Costa_200_1262", "204[1][1]", 160).
exit("Costa_200_1262", "204[1][1]", 195).
origin("Vittorio_Veneto_2_585", "224[0]").
enter("Vittorio_Veneto_2_585", "224[0]", 0).
exit("Vittorio_Veneto_2_585", "224[0]", 140).
enter("Vittorio_Veneto_2_585", "224[1]", 140).
exit("Vittorio_Veneto_2_585", "224[1]", 200).
enter("Vittorio_Veneto_2_585", "[181|18]", 200).
exit("Vittorio_Veneto_2_585", "[181|18]", 275).
enter("Vittorio_Veneto_2_585", "[17|71]", 275).
exit("Vittorio_Veneto_2_585", "[17|71]", 330).
enter("Vittorio_Veneto_2_585", "67", 330).
exit("Vittorio_Veneto_2_585", "67", 340).
enter("Vittorio_Veneto_2_585", "[80|127]", 340).
exit("Vittorio_Veneto_2_585", "[80|127]", 360).
enter("Vittorio_Veneto_2_585", "(77[1][0])", 360).
exit("Vittorio_Veneto_2_585", "(77[1][0])", 380).
enter("Vittorio_Veneto_2_585", "77[1][1]", 380).
exit("Vittorio_Veneto_2_585", "77[1][1]", 420).
origin("Audinot_3_93", "57[0]").
enter("Audinot_3_93", "57[0]", 0).
exit("Audinot_3_93", "57[0]", 85).
enter("Audinot_3_93", "57[1]", 85).
exit("Audinot_3_93", "57[1]", 100).
enter("Audinot_3_93", "62", 100).
exit("Audinot_3_93", "62", 190).
enter("Audinot_3_93", "159", 190).
exit("Audinot_3_93", "159", 295).
enter("Audinot_3_93", "42", 295).
exit("Audinot_3_93", "42", 315).
enter("Audinot_3_93", "39", 315).
exit("Audinot_3_93", "39", 335).
enter("Audinot_3_93", "35", 335).
exit("Audinot_3_93", "35", 390).
enter("Audinot_3_93", "38", 390).
exit("Audinot_3_93", "38", 450).
enter("Audinot_3_93", "15", 450).
exit("Audinot_3_93", "15", 525).
enter("Audinot_3_93", "14", 525).
exit("Audinot_3_93", "14", 565).
origin("Audinot_3_146", "131").
enter("Audinot_3_146", "131", 0).
exit("Audinot_3_146", "131", 45).
enter("Audinot_3_146", "65", 45).
exit("Audinot_3_146", "65", 85).
enter("Audinot_3_146", "57[0]", 85).
exit("Audinot_3_146", "57[0]", 105).
enter("Audinot_3_146", "57[1]", 105).
exit("Audinot_3_146", "57[1]", 110).
enter("Audinot_3_146", "62", 110).
exit("Audinot_3_146", "62", 175).
enter("Audinot_3_146", "159", 175).
exit("Audinot_3_146", "159", 375).
enter("Audinot_3_146", "42", 375).
exit("Audinot_3_146", "42", 385).
enter("Audinot_3_146", "39", 385).
exit("Audinot_3_146", "39", 415).
enter("Audinot_3_146", "35", 415).
exit("Audinot_3_146", "35", 465).
enter("Audinot_3_146", "38", 465).
exit("Audinot_3_146", "38", 525).
enter("Audinot_3_146", "15", 525).
exit("Audinot_3_146", "15", 610).
enter("Audinot_3_146", "14", 610).
exit("Audinot_3_146", "14", 1340).
origin("Togliatti_10_519", "204b[0]").
enter("Togliatti_10_519", "204b[0]", 0).
exit("Togliatti_10_519", "204b[0]", 20).
enter("Togliatti_10_519", "204[1][0]", 20).
exit("Togliatti_10_519", "204[1][0]", 55).
enter("Togliatti_10_519", "204[1][1]", 55).
exit("Togliatti_10_519", "204[1][1]", 90).
origin("Silvani_3_1480", "38").
enter("Silvani_3_1480", "38", 0).
exit("Silvani_3_1480", "38", 60).
enter("Silvani_3_1480", "15", 60).
exit("Silvani_3_1480", "15", 135).
enter("Silvani_3_1480", "14", 135).
exit("Silvani_3_1480", "14", 175).
origin("XXI_Aprile_7_831", "120").
enter("XXI_Aprile_7_831", "120", 0).
exit("XXI_Aprile_7_831", "120", 40).
enter("XXI_Aprile_7_831", "117", 40).
exit("XXI_Aprile_7_831", "117", 95).
enter("XXI_Aprile_7_831", "209", 95).
exit("XXI_Aprile_7_831", "209", 1170).
origin("Togliatti_10_626", "[116|46]").
enter("Togliatti_10_626", "[116|46]", 0).
exit("Togliatti_10_626", "[116|46]", 45).
enter("Togliatti_10_626", "201", 45).
exit("Togliatti_10_626", "201", 165).
enter("Togliatti_10_626", "201c", 165).
exit("Togliatti_10_626", "201c", 265).
enter("Togliatti_10_626", "204a[0]", 265).
exit("Togliatti_10_626", "204a[0]", 370).
enter("Togliatti_10_626", "204b[0]", 370).
exit("Togliatti_10_626", "204b[0]", 1335).
enter("Togliatti_10_626", "204[1][0]", 1335).
exit("Togliatti_10_626", "204[1][0]", 1415).
enter("Togliatti_10_626", "204[1][1]", 1415).
exit("Togliatti_10_626", "204[1][1]", 1605).
origin("Togliatti_71_660", "85").
enter("Togliatti_71_660", "85", 0).
exit("Togliatti_71_660", "85", 70).
enter("Togliatti_71_660", "72[0]", 70).
exit("Togliatti_71_660", "72[0]", 295).
enter("Togliatti_71_660", "72[1]", 295).
exit("Togliatti_71_660", "72[1]", 350).
enter("Togliatti_71_660", "69", 350).
exit("Togliatti_71_660", "69", 470).
enter("Togliatti_71_660", "161", 470).
exit("Togliatti_71_660", "161", 490).
enter("Togliatti_71_660", "194", 490).
exit("Togliatti_71_660", "194", 675).
enter("Togliatti_71_660", "91", 675).
exit("Togliatti_71_660", "91", 695).
enter("Togliatti_71_660", "186", 695).
exit("Togliatti_71_660", "186", 730).
enter("Togliatti_71_660", "[109[0]|109[1][0]+20003|109[1][1]]", 730).
exit("Togliatti_71_660", "[109[0]|109[1][0]+20003|109[1][1]]", 760).
enter("Togliatti_71_660", "[116|46]", 760).
exit("Togliatti_71_660", "[116|46]", 805).
enter("Togliatti_71_660", "113", 805).
exit("Togliatti_71_660", "113", 850).
enter("Togliatti_71_660", "209", 850).
exit("Togliatti_71_660", "209", 885).
origin("Togliatti_10_497", "72[0]").
enter("Togliatti_10_497", "72[0]", 0).
exit("Togliatti_10_497", "72[0]", 75).
enter("Togliatti_10_497", "72[1]", 75).
exit("Togliatti_10_497", "72[1]", 115).
enter("Togliatti_10_497", "69", 115).
exit("Togliatti_10_497", "69", 210).
enter("Togliatti_10_497", "161", 210).
exit("Togliatti_10_497", "161", 260).
enter("Togliatti_10_497", "122", 260).
exit("Togliatti_10_497", "122", 360).
enter("Togliatti_10_497", "1b", 360).
exit("Togliatti_10_497", "1b", 420).
enter("Togliatti_10_497", "1", 420).
exit("Togliatti_10_497", "1", 455).
enter("Togliatti_10_497", "204a[0]", 455).
exit("Togliatti_10_497", "204a[0]", 575).
enter("Togliatti_10_497", "204b[0]", 575).
exit("Togliatti_10_497", "204b[0]", 580).
enter("Togliatti_10_497", "204[1][0]", 580).
exit("Togliatti_10_497", "204[1][0]", 615).
enter("Togliatti_10_497", "204[1][1]", 615).
exit("Togliatti_10_497", "204[1][1]", 650).
origin("Togliatti_11_489", "72[0]").
enter("Togliatti_11_489", "72[0]", 0).
exit("Togliatti_11_489", "72[0]", 395).
enter("Togliatti_11_489", "72[1]", 395).
exit("Togliatti_11_489", "72[1]", 505).
enter("Togliatti_11_489", "69", 505).
exit("Togliatti_11_489", "69", 555).
enter("Togliatti_11_489", "161", 555).
exit("Togliatti_11_489", "161", 605).
enter("Togliatti_11_489", "122", 605).
exit("Togliatti_11_489", "122", 1985).
enter("Togliatti_11_489", "1b", 1985).
exit("Togliatti_11_489", "1b", 2670).
enter("Togliatti_11_489", "1", 2670).
exit("Togliatti_11_489", "1", 2705).
enter("Togliatti_11_489", "204a[0]", 2705).
exit("Togliatti_11_489", "204a[0]", 2770).
enter("Togliatti_11_489", "124", 2770).
exit("Togliatti_11_489", "124", 4455).
origin("Togliatti_9_675", "[87[0]|20001+87[1][0]|87[1][1]]").
enter("Togliatti_9_675", "[87[0]|20001+87[1][0]|87[1][1]]", 0).
exit("Togliatti_9_675", "[87[0]|20001+87[1][0]|87[1][1]]", 5).
enter("Togliatti_9_675", "m90", 5).
exit("Togliatti_9_675", "m90", 10).
enter("Togliatti_9_675", "171", 10).
exit("Togliatti_9_675", "171", 55).
enter("Togliatti_9_675", "161", 55).
exit("Togliatti_9_675", "161", 75).
enter("Togliatti_9_675", "122", 75).
exit("Togliatti_9_675", "122", 105).
enter("Togliatti_9_675", "1b", 105).
exit("Togliatti_9_675", "1b", 160).
enter("Togliatti_9_675", "1", 160).
exit("Togliatti_9_675", "1", 560).
enter("Togliatti_9_675", "204a[0]", 560).
exit("Togliatti_9_675", "204a[0]", 1780).
enter("Togliatti_9_675", "204b[0]", 1780).
exit("Togliatti_9_675", "204b[0]", 1840).
enter("Togliatti_9_675", "54", 1840).
exit("Togliatti_9_675", "54", 2455).
origin("Togliatti_10_371", "122").
enter("Togliatti_10_371", "122", 0).
exit("Togliatti_10_371", "122", 55).
enter("Togliatti_10_371", "1b", 55).
exit("Togliatti_10_371", "1b", 115).
enter("Togliatti_10_371", "1", 115).
exit("Togliatti_10_371", "1", 150).
enter("Togliatti_10_371", "204a[0]", 150).
exit("Togliatti_10_371", "204a[0]", 270).
enter("Togliatti_10_371", "204b[0]", 270).
exit("Togliatti_10_371", "204b[0]", 275).
enter("Togliatti_10_371", "204[1][0]", 275).
exit("Togliatti_10_371", "204[1][0]", 310).
enter("Togliatti_10_371", "204[1][1]", 310).
exit("Togliatti_10_371", "204[1][1]", 345).
origin("Audinot_3_121", "65").
enter("Audinot_3_121", "65", 0).
exit("Audinot_3_121", "65", 45).
enter("Audinot_3_121", "57[0]", 45).
exit("Audinot_3_121", "57[0]", 130).
enter("Audinot_3_121", "57[1]", 130).
exit("Audinot_3_121", "57[1]", 145).
enter("Audinot_3_121", "62", 145).
exit("Audinot_3_121", "62", 235).
enter("Audinot_3_121", "159", 235).
exit("Audinot_3_121", "159", 340).
enter("Audinot_3_121", "42", 340).
exit("Audinot_3_121", "42", 360).
enter("Audinot_3_121", "39", 360).
exit("Audinot_3_121", "39", 380).
enter("Audinot_3_121", "35", 380).
exit("Audinot_3_121", "35", 435).
enter("Audinot_3_121", "38", 435).
exit("Audinot_3_121", "38", 495).
enter("Audinot_3_121", "15", 495).
exit("Audinot_3_121", "15", 570).
enter("Audinot_3_121", "14", 570).
exit("Audinot_3_121", "14", 610).
origin("Togliatti_3_2474", "194").
enter("Togliatti_3_2474", "194", 0).
exit("Togliatti_3_2474", "194", 25).
enter("Togliatti_3_2474", "91", 25).
exit("Togliatti_3_2474", "91", 40).
enter("Togliatti_3_2474", "173", 40).
exit("Togliatti_3_2474", "173", 75).
enter("Togliatti_3_2474", "62", 75).
exit("Togliatti_3_2474", "62", 115).
enter("Togliatti_3_2474", "159", 115).
exit("Togliatti_3_2474", "159", 275).
enter("Togliatti_3_2474", "42", 275).
exit("Togliatti_3_2474", "42", 280).
enter("Togliatti_3_2474", "39", 280).
exit("Togliatti_3_2474", "39", 330).
enter("Togliatti_3_2474", "35", 330).
exit("Togliatti_3_2474", "35", 385).
enter("Togliatti_3_2474", "38", 385).
exit("Togliatti_3_2474", "38", 400).
enter("Togliatti_3_2474", "15", 400).
exit("Togliatti_3_2474", "15", 485).
enter("Togliatti_3_2474", "14", 485).
exit("Togliatti_3_2474", "14", 1365).
origin("Vittorio_Veneto_1_547", "224[0]").
enter("Vittorio_Veneto_1_547", "224[0]", 0).
exit("Vittorio_Veneto_1_547", "224[0]", 80).
enter("Vittorio_Veneto_1_547", "224[1]", 80).
exit("Vittorio_Veneto_1_547", "224[1]", 135).
enter("Vittorio_Veneto_1_547", "[181|18]", 135).
exit("Vittorio_Veneto_1_547", "[181|18]", 175).
enter("Vittorio_Veneto_1_547", "[17|71]", 175).
exit("Vittorio_Veneto_1_547", "[17|71]", 270).
enter("Vittorio_Veneto_1_547", "86", 270).
exit("Vittorio_Veneto_1_547", "86", 325).
origin("Pepoli_3_1823", "35").
enter("Pepoli_3_1823", "35", 0).
exit("Pepoli_3_1823", "35", 55).
enter("Pepoli_3_1823", "38", 55).
exit("Pepoli_3_1823", "38", 115).
enter("Pepoli_3_1823", "15", 115).
exit("Pepoli_3_1823", "15", 190).
enter("Pepoli_3_1823", "14", 190).
exit("Pepoli_3_1823", "14", 230).
origin("Togliatti_9_466", "69").
enter("Togliatti_9_466", "69", 0).
exit("Togliatti_9_466", "69", 95).
enter("Togliatti_9_466", "161", 95).
exit("Togliatti_9_466", "161", 145).
enter("Togliatti_9_466", "122", 145).
exit("Togliatti_9_466", "122", 200).
enter("Togliatti_9_466", "1b", 200).
exit("Togliatti_9_466", "1b", 260).
enter("Togliatti_9_466", "1", 260).
exit("Togliatti_9_466", "1", 295).
enter("Togliatti_9_466", "204a[0]", 295).
exit("Togliatti_9_466", "204a[0]", 415).
enter("Togliatti_9_466", "204b[0]", 415).
exit("Togliatti_9_466", "204b[0]", 420).
enter("Togliatti_9_466", "54", 420).
exit("Togliatti_9_466", "54", 445).
origin("XXI_Aprile_9_150", "1b").
enter("XXI_Aprile_9_150", "1b", 0).
exit("XXI_Aprile_9_150", "1b", 60).
enter("XXI_Aprile_9_150", "1", 60).
exit("XXI_Aprile_9_150", "1", 95).
enter("XXI_Aprile_9_150", "204a[0]", 95).
exit("XXI_Aprile_9_150", "204a[0]", 215).
enter("XXI_Aprile_9_150", "204b[0]", 215).
exit("XXI_Aprile_9_150", "204b[0]", 220).
enter("XXI_Aprile_9_150", "54", 220).
exit("XXI_Aprile_9_150", "54", 245).
origin("Togliatti_80_669", "[89[0]|20002+89[1][0]|89[1][1]]").
enter("Togliatti_80_669", "[89[0]|20002+89[1][0]|89[1][1]]", 0).
exit("Togliatti_80_669", "[89[0]|20002+89[1][0]|89[1][1]]", 15).
enter("Togliatti_80_669", "91", 15).
exit("Togliatti_80_669", "91", 25).
enter("Togliatti_80_669", "186", 25).
exit("Togliatti_80_669", "186", 55).
enter("Togliatti_80_669", "[109[0]|109[1][0]+20003|109[1][1]]", 55).
exit("Togliatti_80_669", "[109[0]|109[1][0]+20003|109[1][1]]", 65).
enter("Togliatti_80_669", "[116|46]", 65).
exit("Togliatti_80_669", "[116|46]", 125).
enter("Togliatti_80_669", "134", 125).
exit("Togliatti_80_669", "134", 570).
origin("Costa_200_851", "204a[0]").
enter("Costa_200_851", "204a[0]", 0).
exit("Costa_200_851", "204a[0]", 120).
enter("Costa_200_851", "204b[0]", 120).
exit("Costa_200_851", "204b[0]", 125).
enter("Costa_200_851", "204[1][0]", 125).
exit("Costa_200_851", "204[1][0]", 160).
enter("Costa_200_851", "204[1][1]", 160).
exit("Costa_200_851", "204[1][1]", 195).
origin("Togliatti_9_247", "204a[0]").
enter("Togliatti_9_247", "204a[0]", 0).
exit("Togliatti_9_247", "204a[0]", 120).
enter("Togliatti_9_247", "204b[0]", 120).
exit("Togliatti_9_247", "204b[0]", 125).
enter("Togliatti_9_247", "54", 125).
exit("Togliatti_9_247", "54", 150).
origin("Vittorio_Veneto_10_413", "161").
enter("Vittorio_Veneto_10_413", "161", 0).
exit("Vittorio_Veneto_10_413", "161", 50).
enter("Vittorio_Veneto_10_413", "122", 50).
exit("Vittorio_Veneto_10_413", "122", 150).
enter("Vittorio_Veneto_10_413", "1b", 150).
exit("Vittorio_Veneto_10_413", "1b", 210).
enter("Vittorio_Veneto_10_413", "1", 210).
exit("Vittorio_Veneto_10_413", "1", 245).
enter("Vittorio_Veneto_10_413", "204a[0]", 245).
exit("Vittorio_Veneto_10_413", "204a[0]", 365).
enter("Vittorio_Veneto_10_413", "204b[0]", 365).
exit("Vittorio_Veneto_10_413", "204b[0]", 370).
enter("Vittorio_Veneto_10_413", "204[1][0]", 370).
exit("Vittorio_Veneto_10_413", "204[1][0]", 405).
enter("Vittorio_Veneto_10_413", "204[1][1]", 405).
exit("Vittorio_Veneto_10_413", "204[1][1]", 440).
origin("Vittorio_Veneto_2_526", "224[1]").
enter("Vittorio_Veneto_2_526", "224[1]", 0).
exit("Vittorio_Veneto_2_526", "224[1]", 60).
enter("Vittorio_Veneto_2_526", "[181|18]", 60).
exit("Vittorio_Veneto_2_526", "[181|18]", 135).
enter("Vittorio_Veneto_2_526", "[17|71]", 135).
exit("Vittorio_Veneto_2_526", "[17|71]", 215).
enter("Vittorio_Veneto_2_526", "67", 215).
exit("Vittorio_Veneto_2_526", "67", 245).
enter("Vittorio_Veneto_2_526", "[80|127]", 245).
exit("Vittorio_Veneto_2_526", "[80|127]", 310).
enter("Vittorio_Veneto_2_526", "(77[1][0])", 310).
exit("Vittorio_Veneto_2_526", "(77[1][0])", 330).
enter("Vittorio_Veneto_2_526", "77[1][1]", 330).
exit("Vittorio_Veneto_2_526", "77[1][1]", 390).
origin("Togliatti_10_598", "85").
enter("Togliatti_10_598", "85", 0).
exit("Togliatti_10_598", "85", 60).
enter("Togliatti_10_598", "72[0]", 60).
exit("Togliatti_10_598", "72[0]", 135).
enter("Togliatti_10_598", "72[1]", 135).
exit("Togliatti_10_598", "72[1]", 175).
enter("Togliatti_10_598", "69", 175).
exit("Togliatti_10_598", "69", 270).
enter("Togliatti_10_598", "161", 270).
exit("Togliatti_10_598", "161", 295).
enter("Togliatti_10_598", "122", 295).
exit("Togliatti_10_598", "122", 395).
enter("Togliatti_10_598", "1b", 395).
exit("Togliatti_10_598", "1b", 455).
enter("Togliatti_10_598", "1", 455).
exit("Togliatti_10_598", "1", 490).
enter("Togliatti_10_598", "204a[0]", 490).
exit("Togliatti_10_598", "204a[0]", 610).
enter("Togliatti_10_598", "204b[0]", 610).
exit("Togliatti_10_598", "204b[0]", 615).
enter("Togliatti_10_598", "204[1][0]", 615).
exit("Togliatti_10_598", "204[1][0]", 650).
enter("Togliatti_10_598", "204[1][1]", 650).
exit("Togliatti_10_598", "204[1][1]", 685).
origin("Vittorio_Veneto_82_595", "224[0]").
enter("Vittorio_Veneto_82_595", "224[0]", 0).
exit("Vittorio_Veneto_82_595", "224[0]", 140).
enter("Vittorio_Veneto_82_595", "224[1]", 140).
exit("Vittorio_Veneto_82_595", "224[1]", 200).
enter("Vittorio_Veneto_82_595", "[181|18]", 200).
exit("Vittorio_Veneto_82_595", "[181|18]", 275).
enter("Vittorio_Veneto_82_595", "69", 275).
exit("Vittorio_Veneto_82_595", "69", 370).
enter("Vittorio_Veneto_82_595", "161", 370).
exit("Vittorio_Veneto_82_595", "161", 395).
enter("Vittorio_Veneto_82_595", "122", 395).
exit("Vittorio_Veneto_82_595", "122", 495).
enter("Vittorio_Veneto_82_595", "[3|2]", 495).
exit("Vittorio_Veneto_82_595", "[3|2]", 530).
enter("Vittorio_Veneto_82_595", "[202|34]", 530).
exit("Vittorio_Veneto_82_595", "[202|34]", 580).
enter("Vittorio_Veneto_82_595", "134", 580).
exit("Vittorio_Veneto_82_595", "134", 590).
origin("Costa_700_1366", "186").
enter("Costa_700_1366", "186", 0).
exit("Costa_700_1366", "186", 30).
enter("Costa_700_1366", "[109[0]|109[1][0]+20003|109[1][1]]", 30).
exit("Costa_700_1366", "[109[0]|109[1][0]+20003|109[1][1]]", 65).
enter("Costa_700_1366", "[116|46]", 65).
exit("Costa_700_1366", "[116|46]", 130).
enter("Costa_700_1366", "113", 130).
exit("Costa_700_1366", "113", 200).
enter("Costa_700_1366", "209", 200).
exit("Costa_700_1366", "209", 250).
origin("Audinot_10_120", "119").
enter("Audinot_10_120", "119", 0).
exit("Audinot_10_120", "119", 20).
enter("Audinot_10_120", "[116|46]", 20).
exit("Audinot_10_120", "[116|46]", 85).
enter("Audinot_10_120", "201", 85).
exit("Audinot_10_120", "201", 220).
enter("Audinot_10_120", "201c", 220).
exit("Audinot_10_120", "201c", 255).
enter("Audinot_10_120", "204a[0]", 255).
exit("Audinot_10_120", "204a[0]", 375).
enter("Audinot_10_120", "204b[0]", 375).
exit("Audinot_10_120", "204b[0]", 380).
enter("Audinot_10_120", "204[1][0]", 380).
exit("Audinot_10_120", "204[1][0]", 415).
enter("Audinot_10_120", "204[1][1]", 415).
exit("Audinot_10_120", "204[1][1]", 450).
origin("Vittorio_Veneto_1_498", "[17|71]").
enter("Vittorio_Veneto_1_498", "[17|71]", 0).
exit("Vittorio_Veneto_1_498", "[17|71]", 80).
enter("Vittorio_Veneto_1_498", "86", 80).
exit("Vittorio_Veneto_1_498", "86", 110).
origin("XXI_Aprile_94_985", "161").
enter("XXI_Aprile_94_985", "161", 0).
exit("XXI_Aprile_94_985", "161", 50).
enter("XXI_Aprile_94_985", "122", 50).
exit("XXI_Aprile_94_985", "122", 150).
enter("XXI_Aprile_94_985", "1b", 150).
exit("XXI_Aprile_94_985", "1b", 210).
enter("XXI_Aprile_94_985", "1", 210).
exit("XXI_Aprile_94_985", "1", 245).
enter("XXI_Aprile_94_985", "204a[0]", 245).
exit("XXI_Aprile_94_985", "204a[0]", 365).
enter("XXI_Aprile_94_985", "204b[0]", 365).
exit("XXI_Aprile_94_985", "204b[0]", 370).
enter("XXI_Aprile_94_985", "54", 370).
exit("XXI_Aprile_94_985", "54", 395).
origin("Costa_70_1338", "[116|46]").
enter("Costa_70_1338", "[116|46]", 0).
exit("Costa_70_1338", "[116|46]", 65).
enter("Costa_70_1338", "113", 65).
exit("Costa_70_1338", "113", 135).
enter("Costa_70_1338", "209", 135).
exit("Costa_70_1338", "209", 185).
origin("Costa_50_1241", "194").
enter("Costa_50_1241", "194", 0).
exit("Costa_50_1241", "194", 15).
enter("Costa_50_1241", "91", 15).
exit("Costa_50_1241", "91", 20).
enter("Costa_50_1241", "186", 20).
exit("Costa_50_1241", "186", 25).
enter("Costa_50_1241", "[109[0]|109[1][0]+20003|109[1][1]]", 25).
exit("Costa_50_1241", "[109[0]|109[1][0]+20003|109[1][1]]", 35).
enter("Costa_50_1241", "120", 35).
exit("Costa_50_1241", "120", 50).
enter("Costa_50_1241", "65", 50).
exit("Costa_50_1241", "65", 90).
enter("Costa_50_1241", "[200|60]", 90).
exit("Costa_50_1241", "[200|60]", 820).
origin("Togliatti_10_673", "85").
enter("Togliatti_10_673", "85", 0).
exit("Togliatti_10_673", "85", 60).
enter("Togliatti_10_673", "72[0]", 60).
exit("Togliatti_10_673", "72[0]", 200).
enter("Togliatti_10_673", "72[1]", 200).
exit("Togliatti_10_673", "72[1]", 235).
enter("Togliatti_10_673", "69", 235).
exit("Togliatti_10_673", "69", 335).
enter("Togliatti_10_673", "161", 335).
exit("Togliatti_10_673", "161", 375).
enter("Togliatti_10_673", "194", 375).
exit("Togliatti_10_673", "194", 390).
enter("Togliatti_10_673", "91", 390).
exit("Togliatti_10_673", "91", 395).
enter("Togliatti_10_673", "186", 395).
exit("Togliatti_10_673", "186", 405).
enter("Togliatti_10_673", "[109[0]|109[1][0]+20003|109[1][1]]", 405).
exit("Togliatti_10_673", "[109[0]|109[1][0]+20003|109[1][1]]", 610).
enter("Togliatti_10_673", "[116|46]", 610).
exit("Togliatti_10_673", "[116|46]", 705).
enter("Togliatti_10_673", "201", 705).
exit("Togliatti_10_673", "201", 765).
enter("Togliatti_10_673", "201c", 765).
exit("Togliatti_10_673", "201c", 805).
enter("Togliatti_10_673", "204a[0]", 805).
exit("Togliatti_10_673", "204a[0]", 1685).
enter("Togliatti_10_673", "204b[0]", 1685).
exit("Togliatti_10_673", "204b[0]", 1745).
enter("Togliatti_10_673", "204[1][0]", 1745).
exit("Togliatti_10_673", "204[1][0]", 1790).
enter("Togliatti_10_673", "204[1][1]", 1790).
exit("Togliatti_10_673", "204[1][1]", 2665).
origin("Costa_91_273", "1b").
enter("Costa_91_273", "1b", 0).
exit("Costa_91_273", "1b", 1130).
enter("Costa_91_273", "1", 1130).
exit("Costa_91_273", "1", 1185).
enter("Costa_91_273", "204a[0]", 1185).
exit("Costa_91_273", "204a[0]", 1565).
enter("Costa_91_273", "204b[0]", 1565).
exit("Costa_91_273", "204b[0]", 1570).
enter("Costa_91_273", "54", 1570).
exit("Costa_91_273", "54", 2685).
origin("Togliatti_10_566", "85").
enter("Togliatti_10_566", "85", 0).
exit("Togliatti_10_566", "85", 60).
enter("Togliatti_10_566", "72[0]", 60).
exit("Togliatti_10_566", "72[0]", 135).
enter("Togliatti_10_566", "72[1]", 135).
exit("Togliatti_10_566", "72[1]", 175).
enter("Togliatti_10_566", "69", 175).
exit("Togliatti_10_566", "69", 270).
enter("Togliatti_10_566", "161", 270).
exit("Togliatti_10_566", "161", 295).
enter("Togliatti_10_566", "122", 295).
exit("Togliatti_10_566", "122", 395).
enter("Togliatti_10_566", "1b", 395).
exit("Togliatti_10_566", "1b", 455).
enter("Togliatti_10_566", "1", 455).
exit("Togliatti_10_566", "1", 490).
enter("Togliatti_10_566", "204a[0]", 490).
exit("Togliatti_10_566", "204a[0]", 610).
enter("Togliatti_10_566", "204b[0]", 610).
exit("Togliatti_10_566", "204b[0]", 615).
enter("Togliatti_10_566", "204[1][0]", 615).
exit("Togliatti_10_566", "204[1][0]", 650).
enter("Togliatti_10_566", "204[1][1]", 650).
exit("Togliatti_10_566", "204[1][1]", 685).
origin("Togliatti_3_2373", "194").
enter("Togliatti_3_2373", "194", 0).
exit("Togliatti_3_2373", "194", 25).
enter("Togliatti_3_2373", "91", 25).
exit("Togliatti_3_2373", "91", 70).
enter("Togliatti_3_2373", "173", 70).
exit("Togliatti_3_2373", "173", 105).
enter("Togliatti_3_2373", "62", 105).
exit("Togliatti_3_2373", "62", 130).
enter("Togliatti_3_2373", "159", 130).
exit("Togliatti_3_2373", "159", 200).
enter("Togliatti_3_2373", "42", 200).
exit("Togliatti_3_2373", "42", 225).
enter("Togliatti_3_2373", "39", 225).
exit("Togliatti_3_2373", "39", 245).
enter("Togliatti_3_2373", "35", 245).
exit("Togliatti_3_2373", "35", 285).
enter("Togliatti_3_2373", "38", 285).
exit("Togliatti_3_2373", "38", 300).
enter("Togliatti_3_2373", "15", 300).
exit("Togliatti_3_2373", "15", 530).
enter("Togliatti_3_2373", "14", 530).
exit("Togliatti_3_2373", "14", 1200).
origin("Pepoli_3_1906", "159").
enter("Pepoli_3_1906", "159", 0).
exit("Pepoli_3_1906", "159", 105).
enter("Pepoli_3_1906", "42", 105).
exit("Pepoli_3_1906", "42", 125).
enter("Pepoli_3_1906", "39", 125).
exit("Pepoli_3_1906", "39", 145).
enter("Pepoli_3_1906", "35", 145).
exit("Pepoli_3_1906", "35", 200).
enter("Pepoli_3_1906", "38", 200).
exit("Pepoli_3_1906", "38", 260).
enter("Pepoli_3_1906", "15", 260).
exit("Pepoli_3_1906", "15", 335).
enter("Pepoli_3_1906", "14", 335).
exit("Pepoli_3_1906", "14", 375).
origin("Togliatti_10_544", "72[0]").
enter("Togliatti_10_544", "72[0]", 0).
exit("Togliatti_10_544", "72[0]", 75).
enter("Togliatti_10_544", "72[1]", 75).
exit("Togliatti_10_544", "72[1]", 115).
enter("Togliatti_10_544", "69", 115).
exit("Togliatti_10_544", "69", 210).
enter("Togliatti_10_544", "161", 210).
exit("Togliatti_10_544", "161", 260).
enter("Togliatti_10_544", "122", 260).
exit("Togliatti_10_544", "122", 360).
enter("Togliatti_10_544", "1b", 360).
exit("Togliatti_10_544", "1b", 420).
enter("Togliatti_10_544", "1", 420).
exit("Togliatti_10_544", "1", 455).
enter("Togliatti_10_544", "204a[0]", 455).
exit("Togliatti_10_544", "204a[0]", 575).
enter("Togliatti_10_544", "204b[0]", 575).
exit("Togliatti_10_544", "204b[0]", 580).
enter("Togliatti_10_544", "204[1][0]", 580).
exit("Togliatti_10_544", "204[1][0]", 615).
enter("Togliatti_10_544", "204[1][1]", 615).
exit("Togliatti_10_544", "204[1][1]", 650).
origin("Costa_200_1235", "194").
enter("Costa_200_1235", "194", 0).
exit("Costa_200_1235", "194", 45).
enter("Costa_200_1235", "91", 45).
exit("Costa_200_1235", "91", 65).
enter("Costa_200_1235", "186", 65).
exit("Costa_200_1235", "186", 70).
enter("Costa_200_1235", "[109[0]|109[1][0]+20003|109[1][1]]", 70).
exit("Costa_200_1235", "[109[0]|109[1][0]+20003|109[1][1]]", 80).
enter("Costa_200_1235", "[116|46]", 80).
exit("Costa_200_1235", "[116|46]", 200).
enter("Costa_200_1235", "201", 200).
exit("Costa_200_1235", "201", 915).
enter("Costa_200_1235", "201c", 915).
exit("Costa_200_1235", "201c", 985).
enter("Costa_200_1235", "204a[0]", 985).
exit("Costa_200_1235", "204a[0]", 2000).
enter("Costa_200_1235", "204b[0]", 2000).
exit("Costa_200_1235", "204b[0]", 2040).
enter("Costa_200_1235", "204[1][0]", 2040).
exit("Costa_200_1235", "204[1][0]", 2075).
enter("Costa_200_1235", "204[1][1]", 2075).
exit("Costa_200_1235", "204[1][1]", 2110).
origin("XXI_Aprile_7_1002", "[116|46]").
enter("XXI_Aprile_7_1002", "[116|46]", 0).
exit("XXI_Aprile_7_1002", "[116|46]", 95).
enter("XXI_Aprile_7_1002", "113", 95).
exit("XXI_Aprile_7_1002", "113", 165).
enter("XXI_Aprile_7_1002", "209", 165).
exit("XXI_Aprile_7_1002", "209", 345).
origin("Togliatti_10_670", "85").
enter("Togliatti_10_670", "85", 0).
exit("Togliatti_10_670", "85", 70).
enter("Togliatti_10_670", "72[0]", 70).
exit("Togliatti_10_670", "72[0]", 145).
enter("Togliatti_10_670", "72[1]", 145).
exit("Togliatti_10_670", "72[1]", 185).
enter("Togliatti_10_670", "69", 185).
exit("Togliatti_10_670", "69", 280).
enter("Togliatti_10_670", "161", 280).
exit("Togliatti_10_670", "161", 305).
enter("Togliatti_10_670", "122", 305).
exit("Togliatti_10_670", "122", 405).
enter("Togliatti_10_670", "1b", 405).
exit("Togliatti_10_670", "1b", 465).
enter("Togliatti_10_670", "1", 465).
exit("Togliatti_10_670", "1", 500).
enter("Togliatti_10_670", "204a[0]", 500).
exit("Togliatti_10_670", "204a[0]", 620).
enter("Togliatti_10_670", "204b[0]", 620).
exit("Togliatti_10_670", "204b[0]", 625).
enter("Togliatti_10_670", "204[1][0]", 625).
exit("Togliatti_10_670", "204[1][0]", 660).
enter("Togliatti_10_670", "204[1][1]", 660).
exit("Togliatti_10_670", "204[1][1]", 695).
origin("Pepoli_3_1718", "15").
enter("Pepoli_3_1718", "15", 0).
exit("Pepoli_3_1718", "15", 75).
enter("Pepoli_3_1718", "14", 75).
exit("Pepoli_3_1718", "14", 115).
origin("Pepoli_3_2074", "57[1]").
enter("Pepoli_3_2074", "57[1]", 0).
exit("Pepoli_3_2074", "57[1]", 50).
enter("Pepoli_3_2074", "62", 50).
exit("Pepoli_3_2074", "62", 70).
enter("Pepoli_3_2074", "159", 70).
exit("Pepoli_3_2074", "159", 185).
enter("Pepoli_3_2074", "42", 185).
exit("Pepoli_3_2074", "42", 245).
enter("Pepoli_3_2074", "39", 245).
exit("Pepoli_3_2074", "39", 255).
enter("Pepoli_3_2074", "35", 255).
exit("Pepoli_3_2074", "35", 325).
enter("Pepoli_3_2074", "38", 325).
exit("Pepoli_3_2074", "38", 390).
enter("Pepoli_3_2074", "15", 390).
exit("Pepoli_3_2074", "15", 440).
enter("Pepoli_3_2074", "14", 440).
exit("Pepoli_3_2074", "14", 1460).
origin("Pepoli_3_2039", "62").
enter("Pepoli_3_2039", "62", 0).
exit("Pepoli_3_2039", "62", 40).
enter("Pepoli_3_2039", "159", 40).
exit("Pepoli_3_2039", "159", 60).
enter("Pepoli_3_2039", "42", 60).
exit("Pepoli_3_2039", "42", 70).
enter("Pepoli_3_2039", "39", 70).
exit("Pepoli_3_2039", "39", 225).
enter("Pepoli_3_2039", "35", 225).
exit("Pepoli_3_2039", "35", 275).
enter("Pepoli_3_2039", "38", 275).
exit("Pepoli_3_2039", "38", 300).
enter("Pepoli_3_2039", "33", 300).
exit("Pepoli_3_2039", "33", 320).
enter("Pepoli_3_2039", "10", 320).
exit("Pepoli_3_2039", "10", 710).
origin("Audinot_7_113", "209").
enter("Audinot_7_113", "209", 0).
exit("Audinot_7_113", "209", 50).
origin("XXI_Aprile_102_851", "204a[0]").
enter("XXI_Aprile_102_851", "204a[0]", 0).
exit("XXI_Aprile_102_851", "204a[0]", 540).
enter("XXI_Aprile_102_851", "204b[0]", 540).
exit("XXI_Aprile_102_851", "204b[0]", 745).
enter("XXI_Aprile_102_851", "204[1][0]", 745).
exit("XXI_Aprile_102_851", "204[1][0]", 780).
enter("XXI_Aprile_102_851", "204[1][1]", 780).
exit("XXI_Aprile_102_851", "204[1][1]", 880).
origin("Costa_200_1281", "122").
enter("Costa_200_1281", "122", 0).
exit("Costa_200_1281", "122", 100).
enter("Costa_200_1281", "1b", 100).
exit("Costa_200_1281", "1b", 160).
enter("Costa_200_1281", "1", 160).
exit("Costa_200_1281", "1", 195).
enter("Costa_200_1281", "204a[0]", 195).
exit("Costa_200_1281", "204a[0]", 315).
enter("Costa_200_1281", "204b[0]", 315).
exit("Costa_200_1281", "204b[0]", 320).
enter("Costa_200_1281", "204[1][0]", 320).
exit("Costa_200_1281", "204[1][0]", 355).
enter("Costa_200_1281", "204[1][1]", 355).
exit("Costa_200_1281", "204[1][1]", 390).
origin("Vittorio_Veneto_2_534", "224[1]").
enter("Vittorio_Veneto_2_534", "224[1]", 0).
exit("Vittorio_Veneto_2_534", "224[1]", 60).
enter("Vittorio_Veneto_2_534", "[181|18]", 60).
exit("Vittorio_Veneto_2_534", "[181|18]", 135).
enter("Vittorio_Veneto_2_534", "[17|71]", 135).
exit("Vittorio_Veneto_2_534", "[17|71]", 190).
enter("Vittorio_Veneto_2_534", "67", 190).
exit("Vittorio_Veneto_2_534", "67", 220).
enter("Vittorio_Veneto_2_534", "[80|127]", 220).
exit("Vittorio_Veneto_2_534", "[80|127]", 285).
enter("Vittorio_Veneto_2_534", "(77[1][0])", 285).
exit("Vittorio_Veneto_2_534", "(77[1][0])", 305).
enter("Vittorio_Veneto_2_534", "77[1][1]", 305).
exit("Vittorio_Veneto_2_534", "77[1][1]", 345).
origin("XXI_Aprile_92_878", "204a[0]").
enter("XXI_Aprile_92_878", "204a[0]", 0).
exit("XXI_Aprile_92_878", "204a[0]", 120).
enter("XXI_Aprile_92_878", "204b[0]", 120).
exit("XXI_Aprile_92_878", "204b[0]", 125).
enter("XXI_Aprile_92_878", "54", 125).
exit("XXI_Aprile_92_878", "54", 150).
origin("Togliatti_11_686", "[89[0]|20002+89[1][0]|89[1][1]]").
enter("Togliatti_11_686", "[89[0]|20002+89[1][0]|89[1][1]]", 0).
exit("Togliatti_11_686", "[89[0]|20002+89[1][0]|89[1][1]]", 20).
enter("Togliatti_11_686", "91", 20).
exit("Togliatti_11_686", "91", 25).
enter("Togliatti_11_686", "186", 25).
exit("Togliatti_11_686", "186", 30).
enter("Togliatti_11_686", "[109[0]|109[1][0]+20003|109[1][1]]", 30).
exit("Togliatti_11_686", "[109[0]|109[1][0]+20003|109[1][1]]", 40).
enter("Togliatti_11_686", "[116|46]", 40).
exit("Togliatti_11_686", "[116|46]", 120).
enter("Togliatti_11_686", "201", 120).
exit("Togliatti_11_686", "201", 290).
enter("Togliatti_11_686", "201c", 290).
exit("Togliatti_11_686", "201c", 400).
enter("Togliatti_11_686", "204a[0]", 400).
exit("Togliatti_11_686", "204a[0]", 480).
enter("Togliatti_11_686", "124", 480).
exit("Togliatti_11_686", "124", 1985).
origin("Togliatti_3_1768", "194").
enter("Togliatti_3_1768", "194", 0).
exit("Togliatti_3_1768", "194", 55).
enter("Togliatti_3_1768", "91", 55).
exit("Togliatti_3_1768", "91", 60).
enter("Togliatti_3_1768", "173", 60).
exit("Togliatti_3_1768", "173", 90).
enter("Togliatti_3_1768", "62", 90).
exit("Togliatti_3_1768", "62", 120).
enter("Togliatti_3_1768", "159", 120).
exit("Togliatti_3_1768", "159", 220).
enter("Togliatti_3_1768", "42", 220).
exit("Togliatti_3_1768", "42", 235).
enter("Togliatti_3_1768", "39", 235).
exit("Togliatti_3_1768", "39", 275).
enter("Togliatti_3_1768", "35", 275).
exit("Togliatti_3_1768", "35", 315).
enter("Togliatti_3_1768", "38", 315).
exit("Togliatti_3_1768", "38", 420).
enter("Togliatti_3_1768", "33", 420).
exit("Togliatti_3_1768", "33", 465).
enter("Togliatti_3_1768", "10", 465).
exit("Togliatti_3_1768", "10", 845).
origin("Pepoli_12_1689", "79").
enter("Pepoli_12_1689", "79", 0).
exit("Pepoli_12_1689", "79", 40).
enter("Pepoli_12_1689", "[68|11]", 40).
exit("Pepoli_12_1689", "[68|11]", 85).
enter("Pepoli_12_1689", "84", 85).
exit("Pepoli_12_1689", "84", 105).
enter("Pepoli_12_1689", "180", 105).
exit("Pepoli_12_1689", "180", 200).
origin("Pepoli_3_1810", "35").
enter("Pepoli_3_1810", "35", 0).
exit("Pepoli_3_1810", "35", 55).
enter("Pepoli_3_1810", "38", 55).
exit("Pepoli_3_1810", "38", 115).
enter("Pepoli_3_1810", "15", 115).
exit("Pepoli_3_1810", "15", 190).
enter("Pepoli_3_1810", "14", 190).
exit("Pepoli_3_1810", "14", 230).
origin("Costa_700_1311", "[116|46]").
enter("Costa_700_1311", "[116|46]", 0).
exit("Costa_700_1311", "[116|46]", 95).
enter("Costa_700_1311", "113", 95).
exit("Costa_700_1311", "113", 165).
enter("Costa_700_1311", "209", 165).
exit("Costa_700_1311", "209", 345).
origin("Togliatti_10_368", "122").
enter("Togliatti_10_368", "122", 0).
exit("Togliatti_10_368", "122", 410).
enter("Togliatti_10_368", "1b", 410).
exit("Togliatti_10_368", "1b", 895).
enter("Togliatti_10_368", "1", 895).
exit("Togliatti_10_368", "1", 930).
enter("Togliatti_10_368", "204a[0]", 930).
exit("Togliatti_10_368", "204a[0]", 1090).
enter("Togliatti_10_368", "204b[0]", 1090).
exit("Togliatti_10_368", "204b[0]", 1185).
enter("Togliatti_10_368", "204[1][0]", 1185).
exit("Togliatti_10_368", "204[1][0]", 1535).
enter("Togliatti_10_368", "204[1][1]", 1535).
exit("Togliatti_10_368", "204[1][1]", 1920).
origin("Togliatti_9_273", "1b").
enter("Togliatti_9_273", "1b", 0).
exit("Togliatti_9_273", "1b", 60).
enter("Togliatti_9_273", "1", 60).
exit("Togliatti_9_273", "1", 95).
enter("Togliatti_9_273", "204a[0]", 95).
exit("Togliatti_9_273", "204a[0]", 175).
enter("Togliatti_9_273", "204b[0]", 175).
exit("Togliatti_9_273", "204b[0]", 180).
enter("Togliatti_9_273", "54", 180).
exit("Togliatti_9_273", "54", 205).
origin("XXI_Aprile_103_608", "204a[0]").
enter("XXI_Aprile_103_608", "204a[0]", 0).
exit("XXI_Aprile_103_608", "204a[0]", 120).
enter("XXI_Aprile_103_608", "204b[0]", 120).
exit("XXI_Aprile_103_608", "204b[0]", 125).
enter("XXI_Aprile_103_608", "204[1][0]", 125).
exit("XXI_Aprile_103_608", "204[1][0]", 160).
enter("XXI_Aprile_103_608", "204[1][1]", 160).
exit("XXI_Aprile_103_608", "204[1][1]", 195).
origin("Togliatti_10_528", "72[0]").
enter("Togliatti_10_528", "72[0]", 0).
exit("Togliatti_10_528", "72[0]", 75).
enter("Togliatti_10_528", "72[1]", 75).
exit("Togliatti_10_528", "72[1]", 115).
enter("Togliatti_10_528", "69", 115).
exit("Togliatti_10_528", "69", 210).
enter("Togliatti_10_528", "161", 210).
exit("Togliatti_10_528", "161", 260).
enter("Togliatti_10_528", "122", 260).
exit("Togliatti_10_528", "122", 360).
enter("Togliatti_10_528", "1b", 360).
exit("Togliatti_10_528", "1b", 420).
enter("Togliatti_10_528", "1", 420).
exit("Togliatti_10_528", "1", 455).
enter("Togliatti_10_528", "204a[0]", 455).
exit("Togliatti_10_528", "204a[0]", 575).
enter("Togliatti_10_528", "204b[0]", 575).
exit("Togliatti_10_528", "204b[0]", 580).
enter("Togliatti_10_528", "204[1][0]", 580).
exit("Togliatti_10_528", "204[1][0]", 615).
enter("Togliatti_10_528", "204[1][1]", 615).
exit("Togliatti_10_528", "204[1][1]", 650).
origin("Audinot_3_117", "57[0]").
enter("Audinot_3_117", "57[0]", 0).
exit("Audinot_3_117", "57[0]", 85).
enter("Audinot_3_117", "57[1]", 85).
exit("Audinot_3_117", "57[1]", 100).
enter("Audinot_3_117", "62", 100).
exit("Audinot_3_117", "62", 190).
enter("Audinot_3_117", "159", 190).
exit("Audinot_3_117", "159", 295).
enter("Audinot_3_117", "42", 295).
exit("Audinot_3_117", "42", 315).
enter("Audinot_3_117", "39", 315).
exit("Audinot_3_117", "39", 335).
enter("Audinot_3_117", "35", 335).
exit("Audinot_3_117", "35", 390).
enter("Audinot_3_117", "38", 390).
exit("Audinot_3_117", "38", 450).
enter("Audinot_3_117", "15", 450).
exit("Audinot_3_117", "15", 525).
enter("Audinot_3_117", "14", 525).
exit("Audinot_3_117", "14", 565).
origin("Pepoli_12_1838", "42").
enter("Pepoli_12_1838", "42", 0).
exit("Pepoli_12_1838", "42", 20).
enter("Pepoli_12_1838", "39", 20).
exit("Pepoli_12_1838", "39", 40).
enter("Pepoli_12_1838", "35", 40).
exit("Pepoli_12_1838", "35", 95).
enter("Pepoli_12_1838", "38", 95).
exit("Pepoli_12_1838", "38", 155).
enter("Pepoli_12_1838", "50", 155).
exit("Pepoli_12_1838", "50", 215).
enter("Pepoli_12_1838", "19", 215).
exit("Pepoli_12_1838", "19", 250).
enter("Pepoli_12_1838", "[22|59]", 250).
exit("Pepoli_12_1838", "[22|59]", 320).
enter("Pepoli_12_1838", "(53cd|53[0]|53[1][0])", 320).
exit("Pepoli_12_1838", "(53cd|53[0]|53[1][0])", 340).
enter("Pepoli_12_1838", "79", 340).
exit("Pepoli_12_1838", "79", 410).
enter("Pepoli_12_1838", "[68|11]", 410).
exit("Pepoli_12_1838", "[68|11]", 465).
enter("Pepoli_12_1838", "84", 465).
exit("Pepoli_12_1838", "84", 485).
enter("Pepoli_12_1838", "180", 485).
exit("Pepoli_12_1838", "180", 580).
origin("Audinot_12_140", "131").
enter("Audinot_12_140", "131", 0).
exit("Audinot_12_140", "131", 120).
enter("Audinot_12_140", "65", 120).
exit("Audinot_12_140", "65", 135).
enter("Audinot_12_140", "57[0]", 135).
exit("Audinot_12_140", "57[0]", 155).
enter("Audinot_12_140", "57[1]", 155).
exit("Audinot_12_140", "57[1]", 200).
enter("Audinot_12_140", "62", 200).
exit("Audinot_12_140", "62", 220).
enter("Audinot_12_140", "159", 220).
exit("Audinot_12_140", "159", 240).
enter("Audinot_12_140", "42", 240).
exit("Audinot_12_140", "42", 250).
enter("Audinot_12_140", "39", 250).
exit("Audinot_12_140", "39", 290).
enter("Audinot_12_140", "35", 290).
exit("Audinot_12_140", "35", 350).
enter("Audinot_12_140", "38", 350).
exit("Audinot_12_140", "38", 560).
enter("Audinot_12_140", "15", 560).
exit("Audinot_12_140", "15", 615).
enter("Audinot_12_140", "24", 615).
exit("Audinot_12_140", "24", 695).
enter("Audinot_12_140", "[22|59]", 695).
exit("Audinot_12_140", "[22|59]", 745).
enter("Audinot_12_140", "(53cd|53[0]|53[1][0])", 745).
exit("Audinot_12_140", "(53cd|53[0]|53[1][0])", 765).
enter("Audinot_12_140", "79", 765).
exit("Audinot_12_140", "79", 785).
enter("Audinot_12_140", "[68|11]", 785).
exit("Audinot_12_140", "[68|11]", 825).
enter("Audinot_12_140", "84", 825).
exit("Audinot_12_140", "84", 845).
enter("Audinot_12_140", "180", 845).
exit("Audinot_12_140", "180", 1015).
origin("XXI_Aprile_93_889", "204a[0]").
enter("XXI_Aprile_93_889", "204a[0]", 0).
exit("XXI_Aprile_93_889", "204a[0]", 120).
enter("XXI_Aprile_93_889", "204b[0]", 120).
exit("XXI_Aprile_93_889", "204b[0]", 125).
enter("XXI_Aprile_93_889", "54", 125).
exit("XXI_Aprile_93_889", "54", 150).
origin("Pepoli_3_1710", "15").
enter("Pepoli_3_1710", "15", 0).
exit("Pepoli_3_1710", "15", 75).
enter("Pepoli_3_1710", "14", 75).
exit("Pepoli_3_1710", "14", 115).
origin("Togliatti_9_460", "161").
enter("Togliatti_9_460", "161", 0).
exit("Togliatti_9_460", "161", 50).
enter("Togliatti_9_460", "122", 50).
exit("Togliatti_9_460", "122", 105).
enter("Togliatti_9_460", "1b", 105).
exit("Togliatti_9_460", "1b", 165).
enter("Togliatti_9_460", "1", 165).
exit("Togliatti_9_460", "1", 200).
enter("Togliatti_9_460", "204a[0]", 200).
exit("Togliatti_9_460", "204a[0]", 320).
enter("Togliatti_9_460", "204b[0]", 320).
exit("Togliatti_9_460", "204b[0]", 325).
enter("Togliatti_9_460", "54", 325).
exit("Togliatti_9_460", "54", 350).
origin("Togliatti_10_685", "69").
enter("Togliatti_10_685", "69", 0).
exit("Togliatti_10_685", "69", 75).
enter("Togliatti_10_685", "161", 75).
exit("Togliatti_10_685", "161", 125).
enter("Togliatti_10_685", "194", 125).
exit("Togliatti_10_685", "194", 145).
enter("Togliatti_10_685", "91", 145).
exit("Togliatti_10_685", "91", 210).
enter("Togliatti_10_685", "186", 210).
exit("Togliatti_10_685", "186", 215).
enter("Togliatti_10_685", "[109[0]|109[1][0]+20003|109[1][1]]", 215).
exit("Togliatti_10_685", "[109[0]|109[1][0]+20003|109[1][1]]", 235).
enter("Togliatti_10_685", "[116|46]", 235).
exit("Togliatti_10_685", "[116|46]", 285).
enter("Togliatti_10_685", "201", 285).
exit("Togliatti_10_685", "201", 350).
enter("Togliatti_10_685", "201c", 350).
exit("Togliatti_10_685", "201c", 465).
enter("Togliatti_10_685", "204a[0]", 465).
exit("Togliatti_10_685", "204a[0]", 1500).
enter("Togliatti_10_685", "204b[0]", 1500).
exit("Togliatti_10_685", "204b[0]", 1575).
enter("Togliatti_10_685", "204[1][0]", 1575).
exit("Togliatti_10_685", "204[1][0]", 1630).
enter("Togliatti_10_685", "204[1][1]", 1630).
exit("Togliatti_10_685", "204[1][1]", 2440).
origin("Togliatti_3_2355", "194").
enter("Togliatti_3_2355", "194", 0).
exit("Togliatti_3_2355", "194", 95).
enter("Togliatti_3_2355", "91", 95).
exit("Togliatti_3_2355", "91", 100).
enter("Togliatti_3_2355", "173", 100).
exit("Togliatti_3_2355", "173", 135).
enter("Togliatti_3_2355", "62", 135).
exit("Togliatti_3_2355", "62", 160).
enter("Togliatti_3_2355", "159", 160).
exit("Togliatti_3_2355", "159", 260).
enter("Togliatti_3_2355", "42", 260).
exit("Togliatti_3_2355", "42", 300).
enter("Togliatti_3_2355", "39", 300).
exit("Togliatti_3_2355", "39", 325).
enter("Togliatti_3_2355", "35", 325).
exit("Togliatti_3_2355", "35", 375).
enter("Togliatti_3_2355", "38", 375).
exit("Togliatti_3_2355", "38", 475).
enter("Togliatti_3_2355", "15", 475).
exit("Togliatti_3_2355", "15", 560).
enter("Togliatti_3_2355", "14", 560).
exit("Togliatti_3_2355", "14", 1200).
origin("Togliatti_71_637", "[202|34]").
enter("Togliatti_71_637", "[202|34]", 0).
exit("Togliatti_71_637", "[202|34]", 50).
enter("Togliatti_71_637", "113", 50).
exit("Togliatti_71_637", "113", 110).
enter("Togliatti_71_637", "209", 110).
exit("Togliatti_71_637", "209", 400).
origin("XXI_Aprile_102_837", "204b[0]").
enter("XXI_Aprile_102_837", "204b[0]", 0).
exit("XXI_Aprile_102_837", "204b[0]", 895).
enter("XXI_Aprile_102_837", "204[1][0]", 895).
exit("XXI_Aprile_102_837", "204[1][0]", 930).
enter("XXI_Aprile_102_837", "204[1][1]", 930).
exit("XXI_Aprile_102_837", "204[1][1]", 965).
origin("Audinot_12_98", "57[0]").
enter("Audinot_12_98", "57[0]", 0).
exit("Audinot_12_98", "57[0]", 85).
enter("Audinot_12_98", "57[1]", 85).
exit("Audinot_12_98", "57[1]", 100).
enter("Audinot_12_98", "62", 100).
exit("Audinot_12_98", "62", 190).
enter("Audinot_12_98", "159", 190).
exit("Audinot_12_98", "159", 295).
enter("Audinot_12_98", "42", 295).
exit("Audinot_12_98", "42", 315).
enter("Audinot_12_98", "39", 315).
exit("Audinot_12_98", "39", 335).
enter("Audinot_12_98", "35", 335).
exit("Audinot_12_98", "35", 390).
enter("Audinot_12_98", "38", 390).
exit("Audinot_12_98", "38", 450).
enter("Audinot_12_98", "50", 450).
exit("Audinot_12_98", "50", 480).
enter("Audinot_12_98", "19", 480).
exit("Audinot_12_98", "19", 515).
enter("Audinot_12_98", "[22|59]", 515).
exit("Audinot_12_98", "[22|59]", 585).
enter("Audinot_12_98", "(53cd|53[0]|53[1][0])", 585).
exit("Audinot_12_98", "(53cd|53[0]|53[1][0])", 605).
enter("Audinot_12_98", "79", 605).
exit("Audinot_12_98", "79", 675).
enter("Audinot_12_98", "[68|11]", 675).
exit("Audinot_12_98", "[68|11]", 755).
enter("Audinot_12_98", "84", 755).
exit("Audinot_12_98", "84", 815).
enter("Audinot_12_98", "180", 815).
exit("Audinot_12_98", "180", 910).
origin("Audinot_1_96", "57[0]").
enter("Audinot_1_96", "57[0]", 0).
exit("Audinot_1_96", "57[0]", 85).
enter("Audinot_1_96", "57[1]", 85).
exit("Audinot_1_96", "57[1]", 100).
enter("Audinot_1_96", "62", 100).
exit("Audinot_1_96", "62", 190).
enter("Audinot_1_96", "159", 190).
exit("Audinot_1_96", "159", 295).
enter("Audinot_1_96", "42", 295).
exit("Audinot_1_96", "42", 315).
enter("Audinot_1_96", "39", 315).
exit("Audinot_1_96", "39", 335).
enter("Audinot_1_96", "35", 335).
exit("Audinot_1_96", "35", 390).
enter("Audinot_1_96", "38", 390).
exit("Audinot_1_96", "38", 450).
enter("Audinot_1_96", "50", 450).
exit("Audinot_1_96", "50", 480).
enter("Audinot_1_96", "19", 480).
exit("Audinot_1_96", "19", 515).
enter("Audinot_1_96", "[22|59]", 515).
exit("Audinot_1_96", "[22|59]", 585).
enter("Audinot_1_96", "(53cd|53[0]|53[1][0])", 585).
exit("Audinot_1_96", "(53cd|53[0]|53[1][0])", 605).
enter("Audinot_1_96", "79", 605).
exit("Audinot_1_96", "79", 675).
enter("Audinot_1_96", "[68|11]", 675).
exit("Audinot_1_96", "[68|11]", 755).
enter("Audinot_1_96", "86", 755).
exit("Audinot_1_96", "86", 785).
origin("Pepoli_12_2064", "62").
enter("Pepoli_12_2064", "62", 0).
exit("Pepoli_12_2064", "62", 100).
enter("Pepoli_12_2064", "159", 100).
exit("Pepoli_12_2064", "159", 135).
enter("Pepoli_12_2064", "42", 135).
exit("Pepoli_12_2064", "42", 200).
enter("Pepoli_12_2064", "39", 200).
exit("Pepoli_12_2064", "39", 235).
enter("Pepoli_12_2064", "35", 235).
exit("Pepoli_12_2064", "35", 280).
enter("Pepoli_12_2064", "38", 280).
exit("Pepoli_12_2064", "38", 420).
enter("Pepoli_12_2064", "50", 420).
exit("Pepoli_12_2064", "50", 570).
enter("Pepoli_12_2064", "19", 570).
exit("Pepoli_12_2064", "19", 610).
enter("Pepoli_12_2064", "[22|59]", 610).
exit("Pepoli_12_2064", "[22|59]", 670).
enter("Pepoli_12_2064", "(53cd|53[0])", 670).
exit("Pepoli_12_2064", "(53cd|53[0])", 700).
enter("Pepoli_12_2064", "78[1][1]", 700).
exit("Pepoli_12_2064", "78[1][1]", 715).
enter("Pepoli_12_2064", "[189[0]|189[1][0]+20000|189[1][1]]", 715).
exit("Pepoli_12_2064", "[189[0]|189[1][0]+20000|189[1][1]]", 800).
enter("Pepoli_12_2064", "191", 800).
exit("Pepoli_12_2064", "191", 845).
enter("Pepoli_12_2064", "[17|71]", 845).
exit("Pepoli_12_2064", "[17|71]", 895).
enter("Pepoli_12_2064", "84", 895).
exit("Pepoli_12_2064", "84", 920).
enter("Pepoli_12_2064", "180", 920).
exit("Pepoli_12_2064", "180", 1625).
origin("Togliatti_10_462", "161").
enter("Togliatti_10_462", "161", 0).
exit("Togliatti_10_462", "161", 50).
enter("Togliatti_10_462", "122", 50).
exit("Togliatti_10_462", "122", 105).
enter("Togliatti_10_462", "1b", 105).
exit("Togliatti_10_462", "1b", 165).
enter("Togliatti_10_462", "1", 165).
exit("Togliatti_10_462", "1", 200).
enter("Togliatti_10_462", "204a[0]", 200).
exit("Togliatti_10_462", "204a[0]", 320).
enter("Togliatti_10_462", "204b[0]", 320).
exit("Togliatti_10_462", "204b[0]", 325).
enter("Togliatti_10_462", "204[1][0]", 325).
exit("Togliatti_10_462", "204[1][0]", 360).
enter("Togliatti_10_462", "204[1][1]", 360).
exit("Togliatti_10_462", "204[1][1]", 395).
origin("Pepoli_2_1830", "39").
enter("Pepoli_2_1830", "39", 0).
exit("Pepoli_2_1830", "39", 20).
enter("Pepoli_2_1830", "35", 20).
exit("Pepoli_2_1830", "35", 75).
enter("Pepoli_2_1830", "38", 75).
exit("Pepoli_2_1830", "38", 135).
enter("Pepoli_2_1830", "50", 135).
exit("Pepoli_2_1830", "50", 195).
enter("Pepoli_2_1830", "19", 195).
exit("Pepoli_2_1830", "19", 230).
enter("Pepoli_2_1830", "[22|59]", 230).
exit("Pepoli_2_1830", "[22|59]", 300).
enter("Pepoli_2_1830", "(53cd|53[0]|53[1][0]|53[1][1][0]|77[1][0])", 300).
exit("Pepoli_2_1830", "(53cd|53[0]|53[1][0]|53[1][1][0]|77[1][0])", 310).
enter("Pepoli_2_1830", "77[1][1]", 310).
exit("Pepoli_2_1830", "77[1][1]", 370).
origin("Togliatti_11_692", "[89[0]|20002+89[1][0]|89[1][1]]").
enter("Togliatti_11_692", "[89[0]|20002+89[1][0]|89[1][1]]", 0).
exit("Togliatti_11_692", "[89[0]|20002+89[1][0]|89[1][1]]", 25).
enter("Togliatti_11_692", "91", 25).
exit("Togliatti_11_692", "91", 35).
enter("Togliatti_11_692", "186", 35).
exit("Togliatti_11_692", "186", 40).
enter("Togliatti_11_692", "[109[0]|109[1][0]+20003|109[1][1]]", 40).
exit("Togliatti_11_692", "[109[0]|109[1][0]+20003|109[1][1]]", 50).
enter("Togliatti_11_692", "[116|46]", 50).
exit("Togliatti_11_692", "[116|46]", 105).
enter("Togliatti_11_692", "201", 105).
exit("Togliatti_11_692", "201", 445).
enter("Togliatti_11_692", "201c", 445).
exit("Togliatti_11_692", "201c", 495).
enter("Togliatti_11_692", "204a[0]", 495).
exit("Togliatti_11_692", "204a[0]", 595).
enter("Togliatti_11_692", "124", 595).
exit("Togliatti_11_692", "124", 635).
origin("Vittorio_Veneto_10_252", "122").
enter("Vittorio_Veneto_10_252", "122", 0).
exit("Vittorio_Veneto_10_252", "122", 1245).
enter("Vittorio_Veneto_10_252", "1b", 1245).
exit("Vittorio_Veneto_10_252", "1b", 1780).
enter("Vittorio_Veneto_10_252", "1", 1780).
exit("Vittorio_Veneto_10_252", "1", 1970).
enter("Vittorio_Veneto_10_252", "204a[0]", 1970).
exit("Vittorio_Veneto_10_252", "204a[0]", 2055).
enter("Vittorio_Veneto_10_252", "204b[0]", 2055).
exit("Vittorio_Veneto_10_252", "204b[0]", 2180).
enter("Vittorio_Veneto_10_252", "204[1][0]", 2180).
exit("Vittorio_Veneto_10_252", "204[1][0]", 2270).
enter("Vittorio_Veneto_10_252", "204[1][1]", 2270).
exit("Vittorio_Veneto_10_252", "204[1][1]", 3480).
origin("Togliatti_10_452", "161").
enter("Togliatti_10_452", "161", 0).
exit("Togliatti_10_452", "161", 50).
enter("Togliatti_10_452", "122", 50).
exit("Togliatti_10_452", "122", 105).
enter("Togliatti_10_452", "1b", 105).
exit("Togliatti_10_452", "1b", 165).
enter("Togliatti_10_452", "1", 165).
exit("Togliatti_10_452", "1", 200).
enter("Togliatti_10_452", "204a[0]", 200).
exit("Togliatti_10_452", "204a[0]", 320).
enter("Togliatti_10_452", "204b[0]", 320).
exit("Togliatti_10_452", "204b[0]", 325).
enter("Togliatti_10_452", "204[1][0]", 325).
exit("Togliatti_10_452", "204[1][0]", 360).
enter("Togliatti_10_452", "204[1][1]", 360).
exit("Togliatti_10_452", "204[1][1]", 395).
origin("Togliatti_71_600", "[116|46]").
enter("Togliatti_71_600", "[116|46]", 0).
exit("Togliatti_71_600", "[116|46]", 45).
enter("Togliatti_71_600", "113", 45).
exit("Togliatti_71_600", "113", 95).
enter("Togliatti_71_600", "209", 95).
exit("Togliatti_71_600", "209", 815).
origin("Pepoli_3_1831", "42").
enter("Pepoli_3_1831", "42", 0).
exit("Pepoli_3_1831", "42", 20).
enter("Pepoli_3_1831", "39", 20).
exit("Pepoli_3_1831", "39", 40).
enter("Pepoli_3_1831", "35", 40).
exit("Pepoli_3_1831", "35", 95).
enter("Pepoli_3_1831", "38", 95).
exit("Pepoli_3_1831", "38", 155).
enter("Pepoli_3_1831", "15", 155).
exit("Pepoli_3_1831", "15", 230).
enter("Pepoli_3_1831", "14", 230).
exit("Pepoli_3_1831", "14", 270).
origin("Pepoli_3_1846", "159").
enter("Pepoli_3_1846", "159", 0).
exit("Pepoli_3_1846", "159", 105).
enter("Pepoli_3_1846", "42", 105).
exit("Pepoli_3_1846", "42", 125).
enter("Pepoli_3_1846", "39", 125).
exit("Pepoli_3_1846", "39", 145).
enter("Pepoli_3_1846", "35", 145).
exit("Pepoli_3_1846", "35", 200).
enter("Pepoli_3_1846", "38", 200).
exit("Pepoli_3_1846", "38", 260).
enter("Pepoli_3_1846", "15", 260).
exit("Pepoli_3_1846", "15", 335).
enter("Pepoli_3_1846", "14", 335).
exit("Pepoli_3_1846", "14", 375).
origin("Pepoli_3_1925", "159").
enter("Pepoli_3_1925", "159", 0).
exit("Pepoli_3_1925", "159", 105).
enter("Pepoli_3_1925", "42", 105).
exit("Pepoli_3_1925", "42", 125).
enter("Pepoli_3_1925", "39", 125).
exit("Pepoli_3_1925", "39", 145).
enter("Pepoli_3_1925", "35", 145).
exit("Pepoli_3_1925", "35", 200).
enter("Pepoli_3_1925", "38", 200).
exit("Pepoli_3_1925", "38", 260).
enter("Pepoli_3_1925", "15", 260).
exit("Pepoli_3_1925", "15", 335).
enter("Pepoli_3_1925", "14", 335).
exit("Pepoli_3_1925", "14", 375).
origin("Vittorio_Veneto_2_594", "224[0]").
enter("Vittorio_Veneto_2_594", "224[0]", 0).
exit("Vittorio_Veneto_2_594", "224[0]", 140).
enter("Vittorio_Veneto_2_594", "224[1]", 140).
exit("Vittorio_Veneto_2_594", "224[1]", 200).
enter("Vittorio_Veneto_2_594", "[181|18]", 200).
exit("Vittorio_Veneto_2_594", "[181|18]", 275).
enter("Vittorio_Veneto_2_594", "[17|71]", 275).
exit("Vittorio_Veneto_2_594", "[17|71]", 330).
enter("Vittorio_Veneto_2_594", "67", 330).
exit("Vittorio_Veneto_2_594", "67", 345).
enter("Vittorio_Veneto_2_594", "[80|127]", 345).
exit("Vittorio_Veneto_2_594", "[80|127]", 380).
enter("Vittorio_Veneto_2_594", "(77[1][0])", 380).
exit("Vittorio_Veneto_2_594", "(77[1][0])", 400).
enter("Vittorio_Veneto_2_594", "77[1][1]", 400).
exit("Vittorio_Veneto_2_594", "77[1][1]", 440).
origin("Pepoli_3_1805", "35").
enter("Pepoli_3_1805", "35", 0).
exit("Pepoli_3_1805", "35", 55).
enter("Pepoli_3_1805", "38", 55).
exit("Pepoli_3_1805", "38", 115).
enter("Pepoli_3_1805", "15", 115).
exit("Pepoli_3_1805", "15", 190).
enter("Pepoli_3_1805", "14", 190).
exit("Pepoli_3_1805", "14", 230).
origin("Pepoli_3_2036", "62").
enter("Pepoli_3_2036", "62", 0).
exit("Pepoli_3_2036", "62", 25).
enter("Pepoli_3_2036", "159", 25).
exit("Pepoli_3_2036", "159", 55).
enter("Pepoli_3_2036", "42", 55).
exit("Pepoli_3_2036", "42", 70).
enter("Pepoli_3_2036", "39", 70).
exit("Pepoli_3_2036", "39", 85).
enter("Pepoli_3_2036", "35", 85).
exit("Pepoli_3_2036", "35", 160).
enter("Pepoli_3_2036", "38", 160).
exit("Pepoli_3_2036", "38", 185).
enter("Pepoli_3_2036", "15", 185).
exit("Pepoli_3_2036", "15", 270).
enter("Pepoli_3_2036", "14", 270).
exit("Pepoli_3_2036", "14", 1230).
origin("Vittorio_Veneto_1_508", "224[1]").
enter("Vittorio_Veneto_1_508", "224[1]", 0).
exit("Vittorio_Veneto_1_508", "224[1]", 60).
enter("Vittorio_Veneto_1_508", "[181|18]", 60).
exit("Vittorio_Veneto_1_508", "[181|18]", 135).
enter("Vittorio_Veneto_1_508", "[17|71]", 135).
exit("Vittorio_Veneto_1_508", "[17|71]", 215).
enter("Vittorio_Veneto_1_508", "86", 215).
exit("Vittorio_Veneto_1_508", "86", 245).
origin("Togliatti_9_567", "85").
enter("Togliatti_9_567", "85", 0).
exit("Togliatti_9_567", "85", 60).
enter("Togliatti_9_567", "72[0]", 60).
exit("Togliatti_9_567", "72[0]", 125).
enter("Togliatti_9_567", "72[1]", 125).
exit("Togliatti_9_567", "72[1]", 170).
enter("Togliatti_9_567", "69", 170).
exit("Togliatti_9_567", "69", 235).
enter("Togliatti_9_567", "161", 235).
exit("Togliatti_9_567", "161", 255).
enter("Togliatti_9_567", "122", 255).
exit("Togliatti_9_567", "122", 285).
enter("Togliatti_9_567", "1b", 285).
exit("Togliatti_9_567", "1b", 1690).
enter("Togliatti_9_567", "1", 1690).
exit("Togliatti_9_567", "1", 1900).
enter("Togliatti_9_567", "204a[0]", 1900).
exit("Togliatti_9_567", "204a[0]", 2000).
enter("Togliatti_9_567", "204b[0]", 2000).
exit("Togliatti_9_567", "204b[0]", 2005).
enter("Togliatti_9_567", "54", 2005).
exit("Togliatti_9_567", "54", 2210).
origin("XXI_Aprile_103_619", "204a[0]").
enter("XXI_Aprile_103_619", "204a[0]", 0).
exit("XXI_Aprile_103_619", "204a[0]", 120).
enter("XXI_Aprile_103_619", "204b[0]", 120).
exit("XXI_Aprile_103_619", "204b[0]", 125).
enter("XXI_Aprile_103_619", "204[1][0]", 125).
exit("XXI_Aprile_103_619", "204[1][0]", 160).
enter("XXI_Aprile_103_619", "204[1][1]", 160).
exit("XXI_Aprile_103_619", "204[1][1]", 195).
origin("Costa_70_1315", "[116|46]").
enter("Costa_70_1315", "[116|46]", 0).
exit("Costa_70_1315", "[116|46]", 95).
enter("Costa_70_1315", "113", 95).
exit("Costa_70_1315", "113", 165).
enter("Costa_70_1315", "209", 165).
exit("Costa_70_1315", "209", 345).
origin("Vittorio_Veneto_1_542", "224[0]").
enter("Vittorio_Veneto_1_542", "224[0]", 0).
exit("Vittorio_Veneto_1_542", "224[0]", 140).
enter("Vittorio_Veneto_1_542", "224[1]", 140).
exit("Vittorio_Veneto_1_542", "224[1]", 200).
enter("Vittorio_Veneto_1_542", "[181|18]", 200).
exit("Vittorio_Veneto_1_542", "[181|18]", 275).
enter("Vittorio_Veneto_1_542", "[17|71]", 275).
exit("Vittorio_Veneto_1_542", "[17|71]", 355).
enter("Vittorio_Veneto_1_542", "86", 355).
exit("Vittorio_Veneto_1_542", "86", 385).
origin("Togliatti_9_620", "85").
enter("Togliatti_9_620", "85", 0).
exit("Togliatti_9_620", "85", 60).
enter("Togliatti_9_620", "72[0]", 60).
exit("Togliatti_9_620", "72[0]", 135).
enter("Togliatti_9_620", "72[1]", 135).
exit("Togliatti_9_620", "72[1]", 175).
enter("Togliatti_9_620", "69", 175).
exit("Togliatti_9_620", "69", 270).
enter("Togliatti_9_620", "161", 270).
exit("Togliatti_9_620", "161", 295).
enter("Togliatti_9_620", "122", 295).
exit("Togliatti_9_620", "122", 395).
enter("Togliatti_9_620", "1b", 395).
exit("Togliatti_9_620", "1b", 455).
enter("Togliatti_9_620", "1", 455).
exit("Togliatti_9_620", "1", 490).
enter("Togliatti_9_620", "204a[0]", 490).
exit("Togliatti_9_620", "204a[0]", 610).
enter("Togliatti_9_620", "204b[0]", 610).
exit("Togliatti_9_620", "204b[0]", 615).
enter("Togliatti_9_620", "54", 615).
exit("Togliatti_9_620", "54", 640).
origin("Vittorio_Veneto_10_362", "122").
enter("Vittorio_Veneto_10_362", "122", 0).
exit("Vittorio_Veneto_10_362", "122", 55).
enter("Vittorio_Veneto_10_362", "1b", 55).
exit("Vittorio_Veneto_10_362", "1b", 115).
enter("Vittorio_Veneto_10_362", "1", 115).
exit("Vittorio_Veneto_10_362", "1", 150).
enter("Vittorio_Veneto_10_362", "204a[0]", 150).
exit("Vittorio_Veneto_10_362", "204a[0]", 270).
enter("Vittorio_Veneto_10_362", "204b[0]", 270).
exit("Vittorio_Veneto_10_362", "204b[0]", 275).
enter("Vittorio_Veneto_10_362", "204[1][0]", 275).
exit("Vittorio_Veneto_10_362", "204[1][0]", 310).
enter("Vittorio_Veneto_10_362", "204[1][1]", 310).
exit("Vittorio_Veneto_10_362", "204[1][1]", 345).
origin("Togliatti_71_587", "[116|46]").
enter("Togliatti_71_587", "[116|46]", 0).
exit("Togliatti_71_587", "[116|46]", 65).
enter("Togliatti_71_587", "113", 65).
exit("Togliatti_71_587", "113", 115).
enter("Togliatti_71_587", "209", 115).
exit("Togliatti_71_587", "209", 490).
origin("Togliatti_10_439", "161").
enter("Togliatti_10_439", "161", 0).
exit("Togliatti_10_439", "161", 25).
enter("Togliatti_10_439", "122", 25).
exit("Togliatti_10_439", "122", 80).
enter("Togliatti_10_439", "1b", 80).
exit("Togliatti_10_439", "1b", 140).
enter("Togliatti_10_439", "1", 140).
exit("Togliatti_10_439", "1", 175).
enter("Togliatti_10_439", "204a[0]", 175).
exit("Togliatti_10_439", "204a[0]", 295).
enter("Togliatti_10_439", "204b[0]", 295).
exit("Togliatti_10_439", "204b[0]", 300).
enter("Togliatti_10_439", "204[1][0]", 300).
exit("Togliatti_10_439", "204[1][0]", 335).
enter("Togliatti_10_439", "204[1][1]", 335).
exit("Togliatti_10_439", "204[1][1]", 370).
origin("Vittorio_Veneto_2_537", "224[0]").
enter("Vittorio_Veneto_2_537", "224[0]", 0).
exit("Vittorio_Veneto_2_537", "224[0]", 140).
enter("Vittorio_Veneto_2_537", "224[1]", 140).
exit("Vittorio_Veneto_2_537", "224[1]", 200).
enter("Vittorio_Veneto_2_537", "[181|18]", 200).
exit("Vittorio_Veneto_2_537", "[181|18]", 275).
enter("Vittorio_Veneto_2_537", "[17|71]", 275).
exit("Vittorio_Veneto_2_537", "[17|71]", 355).
enter("Vittorio_Veneto_2_537", "67", 355).
exit("Vittorio_Veneto_2_537", "67", 385).
enter("Vittorio_Veneto_2_537", "[80|127]", 385).
exit("Vittorio_Veneto_2_537", "[80|127]", 450).
enter("Vittorio_Veneto_2_537", "(77[1][0])", 450).
exit("Vittorio_Veneto_2_537", "(77[1][0])", 470).
enter("Vittorio_Veneto_2_537", "77[1][1]", 470).
exit("Vittorio_Veneto_2_537", "77[1][1]", 510).
origin("Vittorio_Veneto_2_560", "224[0]").
enter("Vittorio_Veneto_2_560", "224[0]", 0).
exit("Vittorio_Veneto_2_560", "224[0]", 140).
enter("Vittorio_Veneto_2_560", "224[1]", 140).
exit("Vittorio_Veneto_2_560", "224[1]", 200).
enter("Vittorio_Veneto_2_560", "[181|18]", 200).
exit("Vittorio_Veneto_2_560", "[181|18]", 275).
enter("Vittorio_Veneto_2_560", "[17|71]", 275).
exit("Vittorio_Veneto_2_560", "[17|71]", 330).
enter("Vittorio_Veneto_2_560", "67", 330).
exit("Vittorio_Veneto_2_560", "67", 345).
enter("Vittorio_Veneto_2_560", "[80|127]", 345).
exit("Vittorio_Veneto_2_560", "[80|127]", 380).
enter("Vittorio_Veneto_2_560", "(77[1][0])", 380).
exit("Vittorio_Veneto_2_560", "(77[1][0])", 400).
enter("Vittorio_Veneto_2_560", "77[1][1]", 400).
exit("Vittorio_Veneto_2_560", "77[1][1]", 440).
origin("Costa_70_1048", "209").
enter("Costa_70_1048", "209", 0).
exit("Costa_70_1048", "209", 765).
origin("Togliatti_5_573", "85").
enter("Togliatti_5_573", "85", 0).
exit("Togliatti_5_573", "85", 60).
enter("Togliatti_5_573", "72[0]", 60).
exit("Togliatti_5_573", "72[0]", 350).
enter("Togliatti_5_573", "72[1]", 350).
exit("Togliatti_5_573", "72[1]", 410).
enter("Togliatti_5_573", "69", 410).
exit("Togliatti_5_573", "69", 470).
enter("Togliatti_5_573", "161", 470).
exit("Togliatti_5_573", "161", 490).
enter("Togliatti_5_573", "194", 490).
exit("Togliatti_5_573", "194", 535).
enter("Togliatti_5_573", "91", 535).
exit("Togliatti_5_573", "91", 545).
enter("Togliatti_5_573", "186", 545).
exit("Togliatti_5_573", "186", 840).
enter("Togliatti_5_573", "[109[0]|109[1][0]+20003|109[1][1]]", 840).
exit("Togliatti_5_573", "[109[0]|109[1][0]+20003|109[1][1]]", 855).
enter("Togliatti_5_573", "120", 855).
exit("Togliatti_5_573", "120", 900).
enter("Togliatti_5_573", "65", 900).
exit("Togliatti_5_573", "65", 990).
enter("Togliatti_5_573", "[200|60]", 990).
exit("Togliatti_5_573", "[200|60]", 1060).
origin("Costa_91_177", "204a[0]").
enter("Costa_91_177", "204a[0]", 0).
exit("Costa_91_177", "204a[0]", 50).
enter("Costa_91_177", "204b[0]", 50).
exit("Costa_91_177", "204b[0]", 55).
enter("Costa_91_177", "54", 55).
exit("Costa_91_177", "54", 630).
origin("Audinot_2_118", "57[0]").
enter("Audinot_2_118", "57[0]", 0).
exit("Audinot_2_118", "57[0]", 85).
enter("Audinot_2_118", "57[1]", 85).
exit("Audinot_2_118", "57[1]", 100).
enter("Audinot_2_118", "62", 100).
exit("Audinot_2_118", "62", 190).
enter("Audinot_2_118", "159", 190).
exit("Audinot_2_118", "159", 295).
enter("Audinot_2_118", "42", 295).
exit("Audinot_2_118", "42", 315).
enter("Audinot_2_118", "39", 315).
exit("Audinot_2_118", "39", 335).
enter("Audinot_2_118", "35", 335).
exit("Audinot_2_118", "35", 390).
enter("Audinot_2_118", "38", 390).
exit("Audinot_2_118", "38", 450).
enter("Audinot_2_118", "50", 450).
exit("Audinot_2_118", "50", 510).
enter("Audinot_2_118", "19", 510).
exit("Audinot_2_118", "19", 545).
enter("Audinot_2_118", "[22|59]", 545).
exit("Audinot_2_118", "[22|59]", 615).
enter("Audinot_2_118", "(53cd|53[0]|53[1][0]|53[1][1][0]|77[1][0])", 615).
exit("Audinot_2_118", "(53cd|53[0]|53[1][0]|53[1][1][0]|77[1][0])", 625).
enter("Audinot_2_118", "77[1][1]", 625).
exit("Audinot_2_118", "77[1][1]", 685).
origin("Costa_91_166", "204a[0]").
enter("Costa_91_166", "204a[0]", 0).
exit("Costa_91_166", "204a[0]", 120).
enter("Costa_91_166", "204b[0]", 120).
exit("Costa_91_166", "204b[0]", 125).
enter("Costa_91_166", "54", 125).
exit("Costa_91_166", "54", 150).
origin("Pepoli_3_1784", "35").
enter("Pepoli_3_1784", "35", 0).
exit("Pepoli_3_1784", "35", 55).
enter("Pepoli_3_1784", "38", 55).
exit("Pepoli_3_1784", "38", 115).
enter("Pepoli_3_1784", "15", 115).
exit("Pepoli_3_1784", "15", 190).
enter("Pepoli_3_1784", "14", 190).
exit("Pepoli_3_1784", "14", 230).
origin("Vittorio_Veneto_10_535", "224[0]").
enter("Vittorio_Veneto_10_535", "224[0]", 0).
exit("Vittorio_Veneto_10_535", "224[0]", 140).
enter("Vittorio_Veneto_10_535", "224[1]", 140).
exit("Vittorio_Veneto_10_535", "224[1]", 200).
enter("Vittorio_Veneto_10_535", "[181|18]", 200).
exit("Vittorio_Veneto_10_535", "[181|18]", 275).
enter("Vittorio_Veneto_10_535", "69", 275).
exit("Vittorio_Veneto_10_535", "69", 370).
enter("Vittorio_Veneto_10_535", "161", 370).
exit("Vittorio_Veneto_10_535", "161", 395).
enter("Vittorio_Veneto_10_535", "122", 395).
exit("Vittorio_Veneto_10_535", "122", 495).
enter("Vittorio_Veneto_10_535", "1b", 495).
exit("Vittorio_Veneto_10_535", "1b", 555).
enter("Vittorio_Veneto_10_535", "1", 555).
exit("Vittorio_Veneto_10_535", "1", 590).
enter("Vittorio_Veneto_10_535", "204a[0]", 590).
exit("Vittorio_Veneto_10_535", "204a[0]", 710).
enter("Vittorio_Veneto_10_535", "204b[0]", 710).
exit("Vittorio_Veneto_10_535", "204b[0]", 715).
enter("Vittorio_Veneto_10_535", "204[1][0]", 715).
exit("Vittorio_Veneto_10_535", "204[1][0]", 750).
enter("Vittorio_Veneto_10_535", "204[1][1]", 750).
exit("Vittorio_Veneto_10_535", "204[1][1]", 785).
origin("Costa_70_1341", "[116|46]").
enter("Costa_70_1341", "[116|46]", 0).
exit("Costa_70_1341", "[116|46]", 65).
enter("Costa_70_1341", "113", 65).
exit("Costa_70_1341", "113", 135).
enter("Costa_70_1341", "209", 135).
exit("Costa_70_1341", "209", 185).
origin("Pepoli_3_2090", "57[1]").
enter("Pepoli_3_2090", "57[1]", 0).
exit("Pepoli_3_2090", "57[1]", 35).
enter("Pepoli_3_2090", "62", 35).
exit("Pepoli_3_2090", "62", 125).
enter("Pepoli_3_2090", "159", 125).
exit("Pepoli_3_2090", "159", 190).
enter("Pepoli_3_2090", "42", 190).
exit("Pepoli_3_2090", "42", 215).
enter("Pepoli_3_2090", "39", 215).
exit("Pepoli_3_2090", "39", 250).
enter("Pepoli_3_2090", "35", 250).
exit("Pepoli_3_2090", "35", 315).
enter("Pepoli_3_2090", "38", 315).
exit("Pepoli_3_2090", "38", 330).
enter("Pepoli_3_2090", "33", 330).
exit("Pepoli_3_2090", "33", 345).
enter("Pepoli_3_2090", "10", 345).
exit("Pepoli_3_2090", "10", 370).
origin("Costa_50_1322", "120").
enter("Costa_50_1322", "120", 0).
exit("Costa_50_1322", "120", 75).
enter("Costa_50_1322", "65", 75).
exit("Costa_50_1322", "65", 120).
enter("Costa_50_1322", "[200|60]", 120).
exit("Costa_50_1322", "[200|60]", 255).
origin("Togliatti_71_707", "69").
enter("Togliatti_71_707", "69", 0).
exit("Togliatti_71_707", "69", 65).
enter("Togliatti_71_707", "161", 65).
exit("Togliatti_71_707", "161", 125).
enter("Togliatti_71_707", "122", 125).
exit("Togliatti_71_707", "122", 205).
enter("Togliatti_71_707", "[3|2]", 205).
exit("Togliatti_71_707", "[3|2]", 245).
enter("Togliatti_71_707", "[202|34]", 245).
exit("Togliatti_71_707", "[202|34]", 305).
enter("Togliatti_71_707", "113", 305).
exit("Togliatti_71_707", "113", 350).
enter("Togliatti_71_707", "209", 350).
exit("Togliatti_71_707", "209", 760).
origin("Pepoli_3_1725", "15").
enter("Pepoli_3_1725", "15", 0).
exit("Pepoli_3_1725", "15", 75).
enter("Pepoli_3_1725", "14", 75).
exit("Pepoli_3_1725", "14", 115).
origin("Togliatti_10_486", "69").
enter("Togliatti_10_486", "69", 0).
exit("Togliatti_10_486", "69", 95).
enter("Togliatti_10_486", "161", 95).
exit("Togliatti_10_486", "161", 145).
enter("Togliatti_10_486", "122", 145).
exit("Togliatti_10_486", "122", 200).
enter("Togliatti_10_486", "1b", 200).
exit("Togliatti_10_486", "1b", 260).
enter("Togliatti_10_486", "1", 260).
exit("Togliatti_10_486", "1", 295).
enter("Togliatti_10_486", "204a[0]", 295).
exit("Togliatti_10_486", "204a[0]", 415).
enter("Togliatti_10_486", "204b[0]", 415).
exit("Togliatti_10_486", "204b[0]", 420).
enter("Togliatti_10_486", "204[1][0]", 420).
exit("Togliatti_10_486", "204[1][0]", 455).
enter("Togliatti_10_486", "204[1][1]", 455).
exit("Togliatti_10_486", "204[1][1]", 490).
origin("Vittorio_Veneto_1_502", "[181|18]").
enter("Vittorio_Veneto_1_502", "[181|18]", 0).
exit("Vittorio_Veneto_1_502", "[181|18]", 75).
enter("Vittorio_Veneto_1_502", "[17|71]", 75).
exit("Vittorio_Veneto_1_502", "[17|71]", 155).
enter("Vittorio_Veneto_1_502", "86", 155).
exit("Vittorio_Veneto_1_502", "86", 185).
origin("Pepoli_12_1859", "159").
enter("Pepoli_12_1859", "159", 0).
exit("Pepoli_12_1859", "159", 105).
enter("Pepoli_12_1859", "42", 105).
exit("Pepoli_12_1859", "42", 125).
enter("Pepoli_12_1859", "39", 125).
exit("Pepoli_12_1859", "39", 145).
enter("Pepoli_12_1859", "35", 145).
exit("Pepoli_12_1859", "35", 200).
enter("Pepoli_12_1859", "38", 200).
exit("Pepoli_12_1859", "38", 260).
enter("Pepoli_12_1859", "50", 260).
exit("Pepoli_12_1859", "50", 320).
enter("Pepoli_12_1859", "19", 320).
exit("Pepoli_12_1859", "19", 355).
enter("Pepoli_12_1859", "[22|59]", 355).
exit("Pepoli_12_1859", "[22|59]", 425).
enter("Pepoli_12_1859", "(53cd|53[0]|53[1][0])", 425).
exit("Pepoli_12_1859", "(53cd|53[0]|53[1][0])", 445).
enter("Pepoli_12_1859", "79", 445).
exit("Pepoli_12_1859", "79", 515).
enter("Pepoli_12_1859", "[68|11]", 515).
exit("Pepoli_12_1859", "[68|11]", 570).
enter("Pepoli_12_1859", "84", 570).
exit("Pepoli_12_1859", "84", 590).
enter("Pepoli_12_1859", "180", 590).
exit("Pepoli_12_1859", "180", 685).
origin("Vittorio_Veneto_2_530", "224[1]").
enter("Vittorio_Veneto_2_530", "224[1]", 0).
exit("Vittorio_Veneto_2_530", "224[1]", 60).
enter("Vittorio_Veneto_2_530", "[181|18]", 60).
exit("Vittorio_Veneto_2_530", "[181|18]", 135).
enter("Vittorio_Veneto_2_530", "[17|71]", 135).
exit("Vittorio_Veneto_2_530", "[17|71]", 215).
enter("Vittorio_Veneto_2_530", "67", 215).
exit("Vittorio_Veneto_2_530", "67", 245).
enter("Vittorio_Veneto_2_530", "[80|127]", 245).
exit("Vittorio_Veneto_2_530", "[80|127]", 310).
enter("Vittorio_Veneto_2_530", "(77[1][0])", 310).
exit("Vittorio_Veneto_2_530", "(77[1][0])", 330).
enter("Vittorio_Veneto_2_530", "77[1][1]", 330).
exit("Vittorio_Veneto_2_530", "77[1][1]", 390).
origin("Togliatti_10_562", "85").
enter("Togliatti_10_562", "85", 0).
exit("Togliatti_10_562", "85", 70).
enter("Togliatti_10_562", "72[0]", 70).
exit("Togliatti_10_562", "72[0]", 145).
enter("Togliatti_10_562", "72[1]", 145).
exit("Togliatti_10_562", "72[1]", 185).
enter("Togliatti_10_562", "69", 185).
exit("Togliatti_10_562", "69", 280).
enter("Togliatti_10_562", "161", 280).
exit("Togliatti_10_562", "161", 305).
enter("Togliatti_10_562", "122", 305).
exit("Togliatti_10_562", "122", 405).
enter("Togliatti_10_562", "1b", 405).
exit("Togliatti_10_562", "1b", 465).
enter("Togliatti_10_562", "1", 465).
exit("Togliatti_10_562", "1", 500).
enter("Togliatti_10_562", "204a[0]", 500).
exit("Togliatti_10_562", "204a[0]", 620).
enter("Togliatti_10_562", "204b[0]", 620).
exit("Togliatti_10_562", "204b[0]", 625).
enter("Togliatti_10_562", "204[1][0]", 625).
exit("Togliatti_10_562", "204[1][0]", 660).
enter("Togliatti_10_562", "204[1][1]", 660).
exit("Togliatti_10_562", "204[1][1]", 695).
origin("Togliatti_9_469", "69").
enter("Togliatti_9_469", "69", 0).
exit("Togliatti_9_469", "69", 95).
enter("Togliatti_9_469", "161", 95).
exit("Togliatti_9_469", "161", 145).
enter("Togliatti_9_469", "122", 145).
exit("Togliatti_9_469", "122", 200).
enter("Togliatti_9_469", "1b", 200).
exit("Togliatti_9_469", "1b", 260).
enter("Togliatti_9_469", "1", 260).
exit("Togliatti_9_469", "1", 295).
enter("Togliatti_9_469", "204a[0]", 295).
exit("Togliatti_9_469", "204a[0]", 415).
enter("Togliatti_9_469", "204b[0]", 415).
exit("Togliatti_9_469", "204b[0]", 420).
enter("Togliatti_9_469", "54", 420).
exit("Togliatti_9_469", "54", 445).
origin("Vittorio_Veneto_10_288", "122").
enter("Vittorio_Veneto_10_288", "122", 0).
exit("Vittorio_Veneto_10_288", "122", 55).
enter("Vittorio_Veneto_10_288", "1b", 55).
exit("Vittorio_Veneto_10_288", "1b", 115).
enter("Vittorio_Veneto_10_288", "1", 115).
exit("Vittorio_Veneto_10_288", "1", 150).
enter("Vittorio_Veneto_10_288", "204a[0]", 150).
exit("Vittorio_Veneto_10_288", "204a[0]", 270).
enter("Vittorio_Veneto_10_288", "204b[0]", 270).
exit("Vittorio_Veneto_10_288", "204b[0]", 275).
enter("Vittorio_Veneto_10_288", "204[1][0]", 275).
exit("Vittorio_Veneto_10_288", "204[1][0]", 310).
enter("Vittorio_Veneto_10_288", "204[1][1]", 310).
exit("Vittorio_Veneto_10_288", "204[1][1]", 345).
origin("Vittorio_Veneto_10_517", "224[1]").
enter("Vittorio_Veneto_10_517", "224[1]", 0).
exit("Vittorio_Veneto_10_517", "224[1]", 60).
enter("Vittorio_Veneto_10_517", "[181|18]", 60).
exit("Vittorio_Veneto_10_517", "[181|18]", 135).
enter("Vittorio_Veneto_10_517", "69", 135).
exit("Vittorio_Veneto_10_517", "69", 230).
enter("Vittorio_Veneto_10_517", "161", 230).
exit("Vittorio_Veneto_10_517", "161", 255).
enter("Vittorio_Veneto_10_517", "122", 255).
exit("Vittorio_Veneto_10_517", "122", 355).
enter("Vittorio_Veneto_10_517", "1b", 355).
exit("Vittorio_Veneto_10_517", "1b", 415).
enter("Vittorio_Veneto_10_517", "1", 415).
exit("Vittorio_Veneto_10_517", "1", 450).
enter("Vittorio_Veneto_10_517", "204a[0]", 450).
exit("Vittorio_Veneto_10_517", "204a[0]", 570).
enter("Vittorio_Veneto_10_517", "204b[0]", 570).
exit("Vittorio_Veneto_10_517", "204b[0]", 575).
enter("Vittorio_Veneto_10_517", "204[1][0]", 575).
exit("Vittorio_Veneto_10_517", "204[1][0]", 610).
enter("Vittorio_Veneto_10_517", "204[1][1]", 610).
exit("Vittorio_Veneto_10_517", "204[1][1]", 645).
origin("Togliatti_10_434", "122").
enter("Togliatti_10_434", "122", 0).
exit("Togliatti_10_434", "122", 55).
enter("Togliatti_10_434", "1b", 55).
exit("Togliatti_10_434", "1b", 115).
enter("Togliatti_10_434", "1", 115).
exit("Togliatti_10_434", "1", 150).
enter("Togliatti_10_434", "204a[0]", 150).
exit("Togliatti_10_434", "204a[0]", 270).
enter("Togliatti_10_434", "204b[0]", 270).
exit("Togliatti_10_434", "204b[0]", 275).
enter("Togliatti_10_434", "204[1][0]", 275).
exit("Togliatti_10_434", "204[1][0]", 310).
enter("Togliatti_10_434", "204[1][1]", 310).
exit("Togliatti_10_434", "204[1][1]", 345).
origin("Audinot_7_151", "131").
enter("Audinot_7_151", "131", 0).
exit("Audinot_7_151", "131", 80).
enter("Audinot_7_151", "119", 80).
exit("Audinot_7_151", "119", 135).
enter("Audinot_7_151", "[116|46]", 135).
exit("Audinot_7_151", "[116|46]", 195).
enter("Audinot_7_151", "113", 195).
exit("Audinot_7_151", "113", 235).
enter("Audinot_7_151", "209", 235).
exit("Audinot_7_151", "209", 700).
origin("Audinot_10_89", "201c").
enter("Audinot_10_89", "201c", 0).
exit("Audinot_10_89", "201c", 35).
enter("Audinot_10_89", "204a[0]", 35).
exit("Audinot_10_89", "204a[0]", 155).
enter("Audinot_10_89", "204b[0]", 155).
exit("Audinot_10_89", "204b[0]", 160).
enter("Audinot_10_89", "204[1][0]", 160).
exit("Audinot_10_89", "204[1][0]", 195).
enter("Audinot_10_89", "204[1][1]", 195).
exit("Audinot_10_89", "204[1][1]", 230).
origin("Pepoli_2_1809", "35").
enter("Pepoli_2_1809", "35", 0).
exit("Pepoli_2_1809", "35", 55).
enter("Pepoli_2_1809", "38", 55).
exit("Pepoli_2_1809", "38", 115).
enter("Pepoli_2_1809", "50", 115).
exit("Pepoli_2_1809", "50", 175).
enter("Pepoli_2_1809", "19", 175).
exit("Pepoli_2_1809", "19", 210).
enter("Pepoli_2_1809", "[22|59]", 210).
exit("Pepoli_2_1809", "[22|59]", 280).
enter("Pepoli_2_1809", "(53cd|53[0]|53[1][0]|53[1][1][0]|77[1][0])", 280).
exit("Pepoli_2_1809", "(53cd|53[0]|53[1][0]|53[1][1][0]|77[1][0])", 285).
enter("Pepoli_2_1809", "77[1][1]", 285).
exit("Pepoli_2_1809", "77[1][1]", 345).
origin("Togliatti_10_459", "161").
enter("Togliatti_10_459", "161", 0).
exit("Togliatti_10_459", "161", 50).
enter("Togliatti_10_459", "122", 50).
exit("Togliatti_10_459", "122", 105).
enter("Togliatti_10_459", "1b", 105).
exit("Togliatti_10_459", "1b", 165).
enter("Togliatti_10_459", "1", 165).
exit("Togliatti_10_459", "1", 200).
enter("Togliatti_10_459", "204a[0]", 200).
exit("Togliatti_10_459", "204a[0]", 320).
enter("Togliatti_10_459", "204b[0]", 320).
exit("Togliatti_10_459", "204b[0]", 325).
enter("Togliatti_10_459", "204[1][0]", 325).
exit("Togliatti_10_459", "204[1][0]", 360).
enter("Togliatti_10_459", "204[1][1]", 360).
exit("Togliatti_10_459", "204[1][1]", 395).
origin("Vittorio_Veneto_2_480", "[17|71]").
enter("Vittorio_Veneto_2_480", "[17|71]", 0).
exit("Vittorio_Veneto_2_480", "[17|71]", 80).
enter("Vittorio_Veneto_2_480", "67", 80).
exit("Vittorio_Veneto_2_480", "67", 95).
enter("Vittorio_Veneto_2_480", "[80|127]", 95).
exit("Vittorio_Veneto_2_480", "[80|127]", 160).
enter("Vittorio_Veneto_2_480", "(77[1][0])", 160).
exit("Vittorio_Veneto_2_480", "(77[1][0])", 180).
enter("Vittorio_Veneto_2_480", "77[1][1]", 180).
exit("Vittorio_Veneto_2_480", "77[1][1]", 240).
origin("Costa_50_1316", "120").
enter("Costa_50_1316", "120", 0).
exit("Costa_50_1316", "120", 75).
enter("Costa_50_1316", "65", 75).
exit("Costa_50_1316", "65", 120).
enter("Costa_50_1316", "[200|60]", 120).
exit("Costa_50_1316", "[200|60]", 255).
origin("Togliatti_11_668", "161").
enter("Togliatti_11_668", "161", 0).
exit("Togliatti_11_668", "161", 20).
enter("Togliatti_11_668", "122", 20).
exit("Togliatti_11_668", "122", 60).
enter("Togliatti_11_668", "1b", 60).
exit("Togliatti_11_668", "1b", 395).
enter("Togliatti_11_668", "1", 395).
exit("Togliatti_11_668", "1", 1340).
enter("Togliatti_11_668", "204a[0]", 1340).
exit("Togliatti_11_668", "204a[0]", 1470).
enter("Togliatti_11_668", "124", 1470).
exit("Togliatti_11_668", "124", 1830).
origin("Togliatti_10_710", "85").
enter("Togliatti_10_710", "85", 0).
exit("Togliatti_10_710", "85", 165).
enter("Togliatti_10_710", "72[0]", 165).
exit("Togliatti_10_710", "72[0]", 260).
enter("Togliatti_10_710", "72[1]", 260).
exit("Togliatti_10_710", "72[1]", 615).
enter("Togliatti_10_710", "69", 615).
exit("Togliatti_10_710", "69", 715).
enter("Togliatti_10_710", "161", 715).
exit("Togliatti_10_710", "161", 740).
enter("Togliatti_10_710", "122", 740).
exit("Togliatti_10_710", "122", 905).
enter("Togliatti_10_710", "1b", 905).
exit("Togliatti_10_710", "1b", 2075).
enter("Togliatti_10_710", "1", 2075).
exit("Togliatti_10_710", "1", 2255).
enter("Togliatti_10_710", "204a[0]", 2255).
exit("Togliatti_10_710", "204a[0]", 2350).
enter("Togliatti_10_710", "204b[0]", 2350).
exit("Togliatti_10_710", "204b[0]", 2365).
enter("Togliatti_10_710", "204[1][0]", 2365).
exit("Togliatti_10_710", "204[1][0]", 2415).
enter("Togliatti_10_710", "204[1][1]", 2415).
exit("Togliatti_10_710", "204[1][1]", 2650).
origin("Costa_200_1305", "122").
enter("Costa_200_1305", "122", 0).
exit("Costa_200_1305", "122", 100).
enter("Costa_200_1305", "1b", 100).
exit("Costa_200_1305", "1b", 160).
enter("Costa_200_1305", "1", 160).
exit("Costa_200_1305", "1", 195).
enter("Costa_200_1305", "204a[0]", 195).
exit("Costa_200_1305", "204a[0]", 315).
enter("Costa_200_1305", "204b[0]", 315).
exit("Costa_200_1305", "204b[0]", 320).
enter("Costa_200_1305", "204[1][0]", 320).
exit("Costa_200_1305", "204[1][0]", 355).
enter("Costa_200_1305", "204[1][1]", 355).
exit("Costa_200_1305", "204[1][1]", 390).
origin("Vittorio_Veneto_10_329", "1b").
enter("Vittorio_Veneto_10_329", "1b", 0).
exit("Vittorio_Veneto_10_329", "1b", 60).
enter("Vittorio_Veneto_10_329", "1", 60).
exit("Vittorio_Veneto_10_329", "1", 95).
enter("Vittorio_Veneto_10_329", "204a[0]", 95).
exit("Vittorio_Veneto_10_329", "204a[0]", 215).
enter("Vittorio_Veneto_10_329", "204b[0]", 215).
exit("Vittorio_Veneto_10_329", "204b[0]", 220).
enter("Vittorio_Veneto_10_329", "204[1][0]", 220).
exit("Vittorio_Veneto_10_329", "204[1][0]", 255).
enter("Vittorio_Veneto_10_329", "204[1][1]", 255).
exit("Vittorio_Veneto_10_329", "204[1][1]", 290).
origin("Vittorio_Veneto_1_540", "224[0]").
enter("Vittorio_Veneto_1_540", "224[0]", 0).
exit("Vittorio_Veneto_1_540", "224[0]", 140).
enter("Vittorio_Veneto_1_540", "224[1]", 140).
exit("Vittorio_Veneto_1_540", "224[1]", 200).
enter("Vittorio_Veneto_1_540", "[181|18]", 200).
exit("Vittorio_Veneto_1_540", "[181|18]", 275).
enter("Vittorio_Veneto_1_540", "[17|71]", 275).
exit("Vittorio_Veneto_1_540", "[17|71]", 355).
enter("Vittorio_Veneto_1_540", "86", 355).
exit("Vittorio_Veneto_1_540", "86", 385).
origin("Audinot_7_110", "209").
enter("Audinot_7_110", "209", 0).
exit("Audinot_7_110", "209", 180).
origin("Vittorio_Veneto_1_578", "224[0]").
enter("Vittorio_Veneto_1_578", "224[0]", 0).
exit("Vittorio_Veneto_1_578", "224[0]", 140).
enter("Vittorio_Veneto_1_578", "224[1]", 140).
exit("Vittorio_Veneto_1_578", "224[1]", 200).
enter("Vittorio_Veneto_1_578", "[181|18]", 200).
exit("Vittorio_Veneto_1_578", "[181|18]", 275).
enter("Vittorio_Veneto_1_578", "[17|71]", 275).
exit("Vittorio_Veneto_1_578", "[17|71]", 330).
enter("Vittorio_Veneto_1_578", "86", 330).
exit("Vittorio_Veneto_1_578", "86", 360).
origin("Pepoli_2_1697", "[22|59]").
enter("Pepoli_2_1697", "[22|59]", 0).
exit("Pepoli_2_1697", "[22|59]", 70).
enter("Pepoli_2_1697", "(53cd|53[0]|53[1][0]|53[1][1][0]|77[1][0])", 70).
exit("Pepoli_2_1697", "(53cd|53[0]|53[1][0]|53[1][1][0]|77[1][0])", 80).
enter("Pepoli_2_1697", "77[1][1]", 80).
exit("Pepoli_2_1697", "77[1][1]", 140).
origin("Silvani_3_1463", "15").
enter("Silvani_3_1463", "15", 0).
exit("Silvani_3_1463", "15", 75).
enter("Silvani_3_1463", "14", 75).
exit("Silvani_3_1463", "14", 115).
origin("Vittorio_Veneto_73_583", "224[0]").
enter("Vittorio_Veneto_73_583", "224[0]", 0).
exit("Vittorio_Veneto_73_583", "224[0]", 140).
enter("Vittorio_Veneto_73_583", "224[1]", 140).
exit("Vittorio_Veneto_73_583", "224[1]", 200).
enter("Vittorio_Veneto_73_583", "[181|18]", 200).
exit("Vittorio_Veneto_73_583", "[181|18]", 275).
enter("Vittorio_Veneto_73_583", "69", 275).
exit("Vittorio_Veneto_73_583", "69", 370).
enter("Vittorio_Veneto_73_583", "161", 370).
exit("Vittorio_Veneto_73_583", "161", 395).
enter("Vittorio_Veneto_73_583", "122", 395).
exit("Vittorio_Veneto_73_583", "122", 495).
enter("Vittorio_Veneto_73_583", "[3|2]", 495).
exit("Vittorio_Veneto_73_583", "[3|2]", 530).
enter("Vittorio_Veneto_73_583", "[202|34]", 530).
exit("Vittorio_Veneto_73_583", "[202|34]", 580).
enter("Vittorio_Veneto_73_583", "113", 580).
exit("Vittorio_Veneto_73_583", "113", 620).
enter("Vittorio_Veneto_73_583", "209", 620).
exit("Vittorio_Veneto_73_583", "209", 655).
origin("Togliatti_3_2146", "62").
enter("Togliatti_3_2146", "62", 0).
exit("Togliatti_3_2146", "62", 50).
enter("Togliatti_3_2146", "159", 50).
exit("Togliatti_3_2146", "159", 115).
enter("Togliatti_3_2146", "42", 115).
exit("Togliatti_3_2146", "42", 220).
enter("Togliatti_3_2146", "39", 220).
exit("Togliatti_3_2146", "39", 225).
enter("Togliatti_3_2146", "35", 225).
exit("Togliatti_3_2146", "35", 255).
enter("Togliatti_3_2146", "38", 255).
exit("Togliatti_3_2146", "38", 295).
enter("Togliatti_3_2146", "33", 295).
exit("Togliatti_3_2146", "33", 315).
enter("Togliatti_3_2146", "10", 315).
exit("Togliatti_3_2146", "10", 620).
origin("XXI_Aprile_7_951", "[116|46]").
enter("XXI_Aprile_7_951", "[116|46]", 0).
exit("XXI_Aprile_7_951", "[116|46]", 55).
enter("XXI_Aprile_7_951", "113", 55).
exit("XXI_Aprile_7_951", "113", 100).
enter("XXI_Aprile_7_951", "209", 100).
exit("XXI_Aprile_7_951", "209", 775).
origin("Togliatti_10_407", "122").
enter("Togliatti_10_407", "122", 0).
exit("Togliatti_10_407", "122", 55).
enter("Togliatti_10_407", "1b", 55).
exit("Togliatti_10_407", "1b", 115).
enter("Togliatti_10_407", "1", 115).
exit("Togliatti_10_407", "1", 150).
enter("Togliatti_10_407", "204a[0]", 150).
exit("Togliatti_10_407", "204a[0]", 270).
enter("Togliatti_10_407", "204b[0]", 270).
exit("Togliatti_10_407", "204b[0]", 275).
enter("Togliatti_10_407", "204[1][0]", 275).
exit("Togliatti_10_407", "204[1][0]", 310).
enter("Togliatti_10_407", "204[1][1]", 310).
exit("Togliatti_10_407", "204[1][1]", 345).
origin("Vittorio_Veneto_1_570", "224[0]").
enter("Vittorio_Veneto_1_570", "224[0]", 0).
exit("Vittorio_Veneto_1_570", "224[0]", 140).
enter("Vittorio_Veneto_1_570", "224[1]", 140).
exit("Vittorio_Veneto_1_570", "224[1]", 200).
enter("Vittorio_Veneto_1_570", "[181|18]", 200).
exit("Vittorio_Veneto_1_570", "[181|18]", 275).
enter("Vittorio_Veneto_1_570", "[17|71]", 275).
exit("Vittorio_Veneto_1_570", "[17|71]", 330).
enter("Vittorio_Veneto_1_570", "86", 330).
exit("Vittorio_Veneto_1_570", "86", 360).
origin("XXI_Aprile_9_306", "122").
enter("XXI_Aprile_9_306", "122", 0).
exit("XXI_Aprile_9_306", "122", 55).
enter("XXI_Aprile_9_306", "1b", 55).
exit("XXI_Aprile_9_306", "1b", 115).
enter("XXI_Aprile_9_306", "1", 115).
exit("XXI_Aprile_9_306", "1", 150).
enter("XXI_Aprile_9_306", "204a[0]", 150).
exit("XXI_Aprile_9_306", "204a[0]", 270).
enter("XXI_Aprile_9_306", "204b[0]", 270).
exit("XXI_Aprile_9_306", "204b[0]", 275).
enter("XXI_Aprile_9_306", "54", 275).
exit("XXI_Aprile_9_306", "54", 300).
origin("Togliatti_71_689", "[89[0]|20002+89[1][0]|89[1][1]]").
enter("Togliatti_71_689", "[89[0]|20002+89[1][0]|89[1][1]]", 0).
exit("Togliatti_71_689", "[89[0]|20002+89[1][0]|89[1][1]]", 20).
enter("Togliatti_71_689", "91", 20).
exit("Togliatti_71_689", "91", 25).
enter("Togliatti_71_689", "186", 25).
exit("Togliatti_71_689", "186", 30).
enter("Togliatti_71_689", "[109[0]|109[1][0]+20003|109[1][1]]", 30).
exit("Togliatti_71_689", "[109[0]|109[1][0]+20003|109[1][1]]", 50).
enter("Togliatti_71_689", "[116|46]", 50).
exit("Togliatti_71_689", "[116|46]", 100).
enter("Togliatti_71_689", "113", 100).
exit("Togliatti_71_689", "113", 140).
enter("Togliatti_71_689", "209", 140).
exit("Togliatti_71_689", "209", 650).
origin("Togliatti_71_624", "[202|34]").
enter("Togliatti_71_624", "[202|34]", 0).
exit("Togliatti_71_624", "[202|34]", 50).
enter("Togliatti_71_624", "113", 50).
exit("Togliatti_71_624", "113", 100).
enter("Togliatti_71_624", "209", 100).
exit("Togliatti_71_624", "209", 850).
origin("Pepoli_12_1769", "38").
enter("Pepoli_12_1769", "38", 0).
exit("Pepoli_12_1769", "38", 60).
enter("Pepoli_12_1769", "50", 60).
exit("Pepoli_12_1769", "50", 120).
enter("Pepoli_12_1769", "19", 120).
exit("Pepoli_12_1769", "19", 155).
enter("Pepoli_12_1769", "[22|59]", 155).
exit("Pepoli_12_1769", "[22|59]", 225).
enter("Pepoli_12_1769", "(53cd|53[0]|53[1][0])", 225).
exit("Pepoli_12_1769", "(53cd|53[0]|53[1][0])", 245).
enter("Pepoli_12_1769", "79", 245).
exit("Pepoli_12_1769", "79", 315).
enter("Pepoli_12_1769", "[68|11]", 315).
exit("Pepoli_12_1769", "[68|11]", 370).
enter("Pepoli_12_1769", "84", 370).
exit("Pepoli_12_1769", "84", 390).
enter("Pepoli_12_1769", "180", 390).
exit("Pepoli_12_1769", "180", 485).
origin("Togliatti_10_717", "[181|18]").
enter("Togliatti_10_717", "[181|18]", 0).
exit("Togliatti_10_717", "[181|18]", 95).
enter("Togliatti_10_717", "69", 95).
exit("Togliatti_10_717", "69", 185).
enter("Togliatti_10_717", "161", 185).
exit("Togliatti_10_717", "161", 215).
enter("Togliatti_10_717", "122", 215).
exit("Togliatti_10_717", "122", 750).
enter("Togliatti_10_717", "1b", 750).
exit("Togliatti_10_717", "1b", 2140).
enter("Togliatti_10_717", "1", 2140).
exit("Togliatti_10_717", "1", 2175).
enter("Togliatti_10_717", "204a[0]", 2175).
exit("Togliatti_10_717", "204a[0]", 2235).
enter("Togliatti_10_717", "204b[0]", 2235).
exit("Togliatti_10_717", "204b[0]", 2240).
enter("Togliatti_10_717", "204[1][0]", 2240).
exit("Togliatti_10_717", "204[1][0]", 2365).
enter("Togliatti_10_717", "204[1][1]", 2365).
exit("Togliatti_10_717", "204[1][1]", 2560).
origin("Costa_50_1344", "120").
enter("Costa_50_1344", "120", 0).
exit("Costa_50_1344", "120", 75).
enter("Costa_50_1344", "65", 75).
exit("Costa_50_1344", "65", 120).
enter("Costa_50_1344", "[200|60]", 120).
exit("Costa_50_1344", "[200|60]", 255).
origin("Costa_70_1331", "[116|46]").
enter("Costa_70_1331", "[116|46]", 0).
exit("Costa_70_1331", "[116|46]", 65).
enter("Costa_70_1331", "113", 65).
exit("Costa_70_1331", "113", 135).
enter("Costa_70_1331", "209", 135).
exit("Costa_70_1331", "209", 185).
origin("Togliatti_9_275", "122").
enter("Togliatti_9_275", "122", 0).
exit("Togliatti_9_275", "122", 20).
enter("Togliatti_9_275", "1b", 20).
exit("Togliatti_9_275", "1b", 80).
enter("Togliatti_9_275", "1", 80).
exit("Togliatti_9_275", "1", 115).
enter("Togliatti_9_275", "204a[0]", 115).
exit("Togliatti_9_275", "204a[0]", 195).
enter("Togliatti_9_275", "204b[0]", 195).
exit("Togliatti_9_275", "204b[0]", 200).
enter("Togliatti_9_275", "54", 200).
exit("Togliatti_9_275", "54", 225).
origin("Costa_70_1307", "[116|46]").
enter("Costa_70_1307", "[116|46]", 0).
exit("Costa_70_1307", "[116|46]", 95).
enter("Costa_70_1307", "113", 95).
exit("Costa_70_1307", "113", 165).
enter("Costa_70_1307", "209", 165).
exit("Costa_70_1307", "209", 345).
origin("XXI_Aprile_7_809", "120").
enter("XXI_Aprile_7_809", "120", 0).
exit("XXI_Aprile_7_809", "120", 20).
enter("XXI_Aprile_7_809", "117", 20).
exit("XXI_Aprile_7_809", "117", 65).
enter("XXI_Aprile_7_809", "209", 65).
exit("XXI_Aprile_7_809", "209", 1000).
origin("Togliatti_3_2465", "194").
enter("Togliatti_3_2465", "194", 0).
exit("Togliatti_3_2465", "194", 25).
enter("Togliatti_3_2465", "91", 25).
exit("Togliatti_3_2465", "91", 35).
enter("Togliatti_3_2465", "173", 35).
exit("Togliatti_3_2465", "173", 60).
enter("Togliatti_3_2465", "62", 60).
exit("Togliatti_3_2465", "62", 110).
enter("Togliatti_3_2465", "159", 110).
exit("Togliatti_3_2465", "159", 150).
enter("Togliatti_3_2465", "42", 150).
exit("Togliatti_3_2465", "42", 240).
enter("Togliatti_3_2465", "39", 240).
exit("Togliatti_3_2465", "39", 295).
enter("Togliatti_3_2465", "35", 295).
exit("Togliatti_3_2465", "35", 370).
enter("Togliatti_3_2465", "38", 370).
exit("Togliatti_3_2465", "38", 390).
enter("Togliatti_3_2465", "15", 390).
exit("Togliatti_3_2465", "15", 495).
enter("Togliatti_3_2465", "14", 495).
exit("Togliatti_3_2465", "14", 1335).
origin("Togliatti_9_593", "85").
enter("Togliatti_9_593", "85", 0).
exit("Togliatti_9_593", "85", 60).
enter("Togliatti_9_593", "72[0]", 60).
exit("Togliatti_9_593", "72[0]", 300).
enter("Togliatti_9_593", "72[1]", 300).
exit("Togliatti_9_593", "72[1]", 495).
enter("Togliatti_9_593", "69", 495).
exit("Togliatti_9_593", "69", 715).
enter("Togliatti_9_593", "161", 715).
exit("Togliatti_9_593", "161", 740).
enter("Togliatti_9_593", "122", 740).
exit("Togliatti_9_593", "122", 1435).
enter("Togliatti_9_593", "1b", 1435).
exit("Togliatti_9_593", "1b", 1995).
enter("Togliatti_9_593", "1", 1995).
exit("Togliatti_9_593", "1", 2075).
enter("Togliatti_9_593", "204a[0]", 2075).
exit("Togliatti_9_593", "204a[0]", 2480).
enter("Togliatti_9_593", "204b[0]", 2480).
exit("Togliatti_9_593", "204b[0]", 2485).
enter("Togliatti_9_593", "54", 2485).
exit("Togliatti_9_593", "54", 2910).
origin("Audinot_7_137", "131").
enter("Audinot_7_137", "131", 0).
exit("Audinot_7_137", "131", 80).
enter("Audinot_7_137", "65", 80).
exit("Audinot_7_137", "65", 90).
enter("Audinot_7_137", "197", 90).
exit("Audinot_7_137", "197", 110).
enter("Audinot_7_137", "[109[0]|109[1][0]+20003|109[1][1]]", 110).
exit("Audinot_7_137", "[109[0]|109[1][0]+20003|109[1][1]]", 150).
enter("Audinot_7_137", "[116|46]", 150).
exit("Audinot_7_137", "[116|46]", 200).
enter("Audinot_7_137", "113", 200).
exit("Audinot_7_137", "113", 290).
enter("Audinot_7_137", "209", 290).
exit("Audinot_7_137", "209", 880).
origin("Costa_50_1352", "173").
enter("Costa_50_1352", "173", 0).
exit("Costa_50_1352", "173", 30).
enter("Costa_50_1352", "58[0]", 30).
exit("Costa_50_1352", "58[0]", 150).
enter("Costa_50_1352", "58[1]", 150).
exit("Costa_50_1352", "58[1]", 245).
enter("Costa_50_1352", "[200|60]", 245).
exit("Costa_50_1352", "[200|60]", 935).
origin("Costa_200_530", "204a[0]").
enter("Costa_200_530", "204a[0]", 0).
exit("Costa_200_530", "204a[0]", 120).
enter("Costa_200_530", "204b[0]", 120).
exit("Costa_200_530", "204b[0]", 125).
enter("Costa_200_530", "204[1][0]", 125).
exit("Costa_200_530", "204[1][0]", 160).
enter("Costa_200_530", "204[1][1]", 160).
exit("Costa_200_530", "204[1][1]", 195).
origin("Togliatti_10_271", "204a[0]").
enter("Togliatti_10_271", "204a[0]", 0).
exit("Togliatti_10_271", "204a[0]", 440).
enter("Togliatti_10_271", "204b[0]", 440).
exit("Togliatti_10_271", "204b[0]", 455).
enter("Togliatti_10_271", "204[1][0]", 455).
exit("Togliatti_10_271", "204[1][0]", 490).
enter("Togliatti_10_271", "204[1][1]", 490).
exit("Togliatti_10_271", "204[1][1]", 795).
origin("Togliatti_9_515", "72[0]").
enter("Togliatti_9_515", "72[0]", 0).
exit("Togliatti_9_515", "72[0]", 75).
enter("Togliatti_9_515", "72[1]", 75).
exit("Togliatti_9_515", "72[1]", 115).
enter("Togliatti_9_515", "69", 115).
exit("Togliatti_9_515", "69", 210).
enter("Togliatti_9_515", "161", 210).
exit("Togliatti_9_515", "161", 260).
enter("Togliatti_9_515", "122", 260).
exit("Togliatti_9_515", "122", 360).
enter("Togliatti_9_515", "1b", 360).
exit("Togliatti_9_515", "1b", 420).
enter("Togliatti_9_515", "1", 420).
exit("Togliatti_9_515", "1", 455).
enter("Togliatti_9_515", "204a[0]", 455).
exit("Togliatti_9_515", "204a[0]", 575).
enter("Togliatti_9_515", "204b[0]", 575).
exit("Togliatti_9_515", "204b[0]", 580).
enter("Togliatti_9_515", "54", 580).
exit("Togliatti_9_515", "54", 605).
origin("Togliatti_9_514", "72[0]").
enter("Togliatti_9_514", "72[0]", 0).
exit("Togliatti_9_514", "72[0]", 75).
enter("Togliatti_9_514", "72[1]", 75).
exit("Togliatti_9_514", "72[1]", 115).
enter("Togliatti_9_514", "69", 115).
exit("Togliatti_9_514", "69", 210).
enter("Togliatti_9_514", "161", 210).
exit("Togliatti_9_514", "161", 260).
enter("Togliatti_9_514", "122", 260).
exit("Togliatti_9_514", "122", 360).
enter("Togliatti_9_514", "1b", 360).
exit("Togliatti_9_514", "1b", 420).
enter("Togliatti_9_514", "1", 420).
exit("Togliatti_9_514", "1", 455).
enter("Togliatti_9_514", "204a[0]", 455).
exit("Togliatti_9_514", "204a[0]", 575).
enter("Togliatti_9_514", "204b[0]", 575).
exit("Togliatti_9_514", "204b[0]", 580).
enter("Togliatti_9_514", "54", 580).
exit("Togliatti_9_514", "54", 605).
origin("Pepoli_3_2018", "62").
enter("Pepoli_3_2018", "62", 0).
exit("Pepoli_3_2018", "62", 25).
enter("Pepoli_3_2018", "159", 25).
exit("Pepoli_3_2018", "159", 90).
enter("Pepoli_3_2018", "42", 90).
exit("Pepoli_3_2018", "42", 120).
enter("Pepoli_3_2018", "39", 120).
exit("Pepoli_3_2018", "39", 160).
enter("Pepoli_3_2018", "35", 160).
exit("Pepoli_3_2018", "35", 170).
enter("Pepoli_3_2018", "38", 170).
exit("Pepoli_3_2018", "38", 190).
enter("Pepoli_3_2018", "33", 190).
exit("Pepoli_3_2018", "33", 205).
enter("Pepoli_3_2018", "10", 205).
exit("Pepoli_3_2018", "10", 225).
origin("Togliatti_10_605", "161").
enter("Togliatti_10_605", "161", 0).
exit("Togliatti_10_605", "161", 20).
enter("Togliatti_10_605", "122", 20).
exit("Togliatti_10_605", "122", 60).
enter("Togliatti_10_605", "1b", 60).
exit("Togliatti_10_605", "1b", 410).
enter("Togliatti_10_605", "1", 410).
exit("Togliatti_10_605", "1", 550).
enter("Togliatti_10_605", "204a[0]", 550).
exit("Togliatti_10_605", "204a[0]", 745).
enter("Togliatti_10_605", "204b[0]", 745).
exit("Togliatti_10_605", "204b[0]", 1525).
enter("Togliatti_10_605", "204[1][0]", 1525).
exit("Togliatti_10_605", "204[1][0]", 1570).
enter("Togliatti_10_605", "204[1][1]", 1570).
exit("Togliatti_10_605", "204[1][1]", 1830).
origin("Pepoli_3_2072", "57[1]").
enter("Pepoli_3_2072", "57[1]", 0).
exit("Pepoli_3_2072", "57[1]", 95).
enter("Pepoli_3_2072", "62", 95).
exit("Pepoli_3_2072", "62", 150).
enter("Pepoli_3_2072", "159", 150).
exit("Pepoli_3_2072", "159", 170).
enter("Pepoli_3_2072", "42", 170).
exit("Pepoli_3_2072", "42", 205).
enter("Pepoli_3_2072", "39", 205).
exit("Pepoli_3_2072", "39", 300).
enter("Pepoli_3_2072", "35", 300).
exit("Pepoli_3_2072", "35", 350).
enter("Pepoli_3_2072", "38", 350).
exit("Pepoli_3_2072", "38", 365).
enter("Pepoli_3_2072", "33", 365).
exit("Pepoli_3_2072", "33", 420).
enter("Pepoli_3_2072", "10", 420).
exit("Pepoli_3_2072", "10", 610).
origin("Togliatti_9_642", "[89[0]|20002+89[1][0]|89[1][1]]").
enter("Togliatti_9_642", "[89[0]|20002+89[1][0]|89[1][1]]", 0).
exit("Togliatti_9_642", "[89[0]|20002+89[1][0]|89[1][1]]", 40).
enter("Togliatti_9_642", "91", 40).
exit("Togliatti_9_642", "91", 50).
enter("Togliatti_9_642", "186", 50).
exit("Togliatti_9_642", "186", 60).
enter("Togliatti_9_642", "[109[0]|109[1][0]+20003|109[1][1]]", 60).
exit("Togliatti_9_642", "[109[0]|109[1][0]+20003|109[1][1]]", 80).
enter("Togliatti_9_642", "[116|46]", 80).
exit("Togliatti_9_642", "[116|46]", 130).
enter("Togliatti_9_642", "201", 130).
exit("Togliatti_9_642", "201", 180).
enter("Togliatti_9_642", "201c", 180).
exit("Togliatti_9_642", "201c", 225).
enter("Togliatti_9_642", "204a[0]", 225).
exit("Togliatti_9_642", "204a[0]", 350).
enter("Togliatti_9_642", "204b[0]", 350).
exit("Togliatti_9_642", "204b[0]", 420).
enter("Togliatti_9_642", "54", 420).
exit("Togliatti_9_642", "54", 955).
origin("Pepoli_12_1895", "159").
enter("Pepoli_12_1895", "159", 0).
exit("Pepoli_12_1895", "159", 105).
enter("Pepoli_12_1895", "42", 105).
exit("Pepoli_12_1895", "42", 125).
enter("Pepoli_12_1895", "39", 125).
exit("Pepoli_12_1895", "39", 145).
enter("Pepoli_12_1895", "35", 145).
exit("Pepoli_12_1895", "35", 200).
enter("Pepoli_12_1895", "38", 200).
exit("Pepoli_12_1895", "38", 260).
enter("Pepoli_12_1895", "50", 260).
exit("Pepoli_12_1895", "50", 320).
enter("Pepoli_12_1895", "19", 320).
exit("Pepoli_12_1895", "19", 355).
enter("Pepoli_12_1895", "[22|59]", 355).
exit("Pepoli_12_1895", "[22|59]", 425).
enter("Pepoli_12_1895", "(53cd|53[0]|53[1][0])", 425).
exit("Pepoli_12_1895", "(53cd|53[0]|53[1][0])", 445).
enter("Pepoli_12_1895", "79", 445).
exit("Pepoli_12_1895", "79", 515).
enter("Pepoli_12_1895", "[68|11]", 515).
exit("Pepoli_12_1895", "[68|11]", 570).
enter("Pepoli_12_1895", "84", 570).
exit("Pepoli_12_1895", "84", 590).
enter("Pepoli_12_1895", "180", 590).
exit("Pepoli_12_1895", "180", 685).
origin("Audinot_3_95", "57[0]").
enter("Audinot_3_95", "57[0]", 0).
exit("Audinot_3_95", "57[0]", 85).
enter("Audinot_3_95", "57[1]", 85).
exit("Audinot_3_95", "57[1]", 100).
enter("Audinot_3_95", "62", 100).
exit("Audinot_3_95", "62", 190).
enter("Audinot_3_95", "159", 190).
exit("Audinot_3_95", "159", 295).
enter("Audinot_3_95", "42", 295).
exit("Audinot_3_95", "42", 315).
enter("Audinot_3_95", "39", 315).
exit("Audinot_3_95", "39", 335).
enter("Audinot_3_95", "35", 335).
exit("Audinot_3_95", "35", 390).
enter("Audinot_3_95", "38", 390).
exit("Audinot_3_95", "38", 450).
enter("Audinot_3_95", "15", 450).
exit("Audinot_3_95", "15", 525).
enter("Audinot_3_95", "14", 525).
exit("Audinot_3_95", "14", 565).
origin("Costa_200_917", "204a[0]").
enter("Costa_200_917", "204a[0]", 0).
exit("Costa_200_917", "204a[0]", 120).
enter("Costa_200_917", "204b[0]", 120).
exit("Costa_200_917", "204b[0]", 125).
enter("Costa_200_917", "204[1][0]", 125).
exit("Costa_200_917", "204[1][0]", 160).
enter("Costa_200_917", "204[1][1]", 160).
exit("Costa_200_917", "204[1][1]", 195).
origin("Togliatti_10_503", "72[0]").
enter("Togliatti_10_503", "72[0]", 0).
exit("Togliatti_10_503", "72[0]", 75).
enter("Togliatti_10_503", "72[1]", 75).
exit("Togliatti_10_503", "72[1]", 115).
enter("Togliatti_10_503", "69", 115).
exit("Togliatti_10_503", "69", 210).
enter("Togliatti_10_503", "161", 210).
exit("Togliatti_10_503", "161", 260).
enter("Togliatti_10_503", "122", 260).
exit("Togliatti_10_503", "122", 360).
enter("Togliatti_10_503", "1b", 360).
exit("Togliatti_10_503", "1b", 420).
enter("Togliatti_10_503", "1", 420).
exit("Togliatti_10_503", "1", 455).
enter("Togliatti_10_503", "204a[0]", 455).
exit("Togliatti_10_503", "204a[0]", 575).
enter("Togliatti_10_503", "204b[0]", 575).
exit("Togliatti_10_503", "204b[0]", 580).
enter("Togliatti_10_503", "204[1][0]", 580).
exit("Togliatti_10_503", "204[1][0]", 615).
enter("Togliatti_10_503", "204[1][1]", 615).
exit("Togliatti_10_503", "204[1][1]", 650).
origin("Silvani_1_1213", "86").
enter("Silvani_1_1213", "86", 0).
exit("Silvani_1_1213", "86", 30).
origin("XXI_Aprile_94_799", "54").
enter("XXI_Aprile_94_799", "54", 0).
exit("XXI_Aprile_94_799", "54", 125).
origin("Pepoli_12_1678", "79").
enter("Pepoli_12_1678", "79", 0).
exit("Pepoli_12_1678", "79", 40).
enter("Pepoli_12_1678", "[68|11]", 40).
exit("Pepoli_12_1678", "[68|11]", 85).
enter("Pepoli_12_1678", "84", 85).
exit("Pepoli_12_1678", "84", 105).
enter("Pepoli_12_1678", "180", 105).
exit("Pepoli_12_1678", "180", 200).
origin("Audinot_3_115", "57[0]").
enter("Audinot_3_115", "57[0]", 0).
exit("Audinot_3_115", "57[0]", 85).
enter("Audinot_3_115", "57[1]", 85).
exit("Audinot_3_115", "57[1]", 100).
enter("Audinot_3_115", "62", 100).
exit("Audinot_3_115", "62", 190).
enter("Audinot_3_115", "159", 190).
exit("Audinot_3_115", "159", 295).
enter("Audinot_3_115", "42", 295).
exit("Audinot_3_115", "42", 315).
enter("Audinot_3_115", "39", 315).
exit("Audinot_3_115", "39", 335).
enter("Audinot_3_115", "35", 335).
exit("Audinot_3_115", "35", 390).
enter("Audinot_3_115", "38", 390).
exit("Audinot_3_115", "38", 450).
enter("Audinot_3_115", "15", 450).
exit("Audinot_3_115", "15", 525).
enter("Audinot_3_115", "14", 525).
exit("Audinot_3_115", "14", 565).
origin("Pepoli_12_1992", "159").
enter("Pepoli_12_1992", "159", 0).
exit("Pepoli_12_1992", "159", 105).
enter("Pepoli_12_1992", "42", 105).
exit("Pepoli_12_1992", "42", 125).
enter("Pepoli_12_1992", "39", 125).
exit("Pepoli_12_1992", "39", 145).
enter("Pepoli_12_1992", "35", 145).
exit("Pepoli_12_1992", "35", 200).
enter("Pepoli_12_1992", "38", 200).
exit("Pepoli_12_1992", "38", 260).
enter("Pepoli_12_1992", "50", 260).
exit("Pepoli_12_1992", "50", 320).
enter("Pepoli_12_1992", "19", 320).
exit("Pepoli_12_1992", "19", 355).
enter("Pepoli_12_1992", "[22|59]", 355).
exit("Pepoli_12_1992", "[22|59]", 425).
enter("Pepoli_12_1992", "(53cd|53[0]|53[1][0])", 425).
exit("Pepoli_12_1992", "(53cd|53[0]|53[1][0])", 445).
enter("Pepoli_12_1992", "79", 445).
exit("Pepoli_12_1992", "79", 515).
enter("Pepoli_12_1992", "[68|11]", 515).
exit("Pepoli_12_1992", "[68|11]", 595).
enter("Pepoli_12_1992", "84", 595).
exit("Pepoli_12_1992", "84", 615).
enter("Pepoli_12_1992", "180", 615).
exit("Pepoli_12_1992", "180", 665).
origin("Costa_200_240", "204a[0]").
enter("Costa_200_240", "204a[0]", 0).
exit("Costa_200_240", "204a[0]", 70).
enter("Costa_200_240", "204b[0]", 70).
exit("Costa_200_240", "204b[0]", 75).
enter("Costa_200_240", "204[1][0]", 75).
exit("Costa_200_240", "204[1][0]", 395).
enter("Costa_200_240", "204[1][1]", 395).
exit("Costa_200_240", "204[1][1]", 905).
origin("Costa_200_1343", "122").
enter("Costa_200_1343", "122", 0).
exit("Costa_200_1343", "122", 100).
enter("Costa_200_1343", "1b", 100).
exit("Costa_200_1343", "1b", 160).
enter("Costa_200_1343", "1", 160).
exit("Costa_200_1343", "1", 195).
enter("Costa_200_1343", "204a[0]", 195).
exit("Costa_200_1343", "204a[0]", 315).
enter("Costa_200_1343", "204b[0]", 315).
exit("Costa_200_1343", "204b[0]", 320).
enter("Costa_200_1343", "204[1][0]", 320).
exit("Costa_200_1343", "204[1][0]", 355).
enter("Costa_200_1343", "204[1][1]", 355).
exit("Costa_200_1343", "204[1][1]", 390).
roundabout("ROUND1", 20).
streetInRoundabout("(77ab)", "ROUND1").
streetInRoundabout("(77ab|77bc)", "ROUND1").
streetInRoundabout("(77ab|77bc|77cd|53cd)", "ROUND1").
streetInRoundabout("(77ab|77bc|77cd)", "ROUND1").
streetInRoundabout("(77ab|77bc|77cd|53cd|53[0])", "ROUND1").
streetInRoundabout("(77ab|77bc|77cd|53cd|53[0]|53[1][0])", "ROUND1").
streetInRoundabout("(77ab|77bc|77cd|53cd|53[0]|53[1][0]|53[1][1][0])", "ROUND1").
streetInRoundabout("(77bc|77cd|53cd|53[0]|53[1][0]|53[1][1][0]|77[1][0])", "ROUND1").
streetInRoundabout("(77bc)", "ROUND1").
streetInRoundabout("(77bc|77cd|53cd)", "ROUND1").
streetInRoundabout("(77bc|77cd)", "ROUND1").
streetInRoundabout("(77bc|77cd|53cd|53[0])", "ROUND1").
streetInRoundabout("(77bc|77cd|53cd|53[0]|53[1][0])", "ROUND1").
streetInRoundabout("(77bc|77cd|53cd|53[0]|53[1][0]|53[1][1][0])", "ROUND1").
streetInRoundabout("(77cd|53cd|53[0]|53[1][0]|53[1][1][0]|77[1][0])", "ROUND1").
streetInRoundabout("(77cd|53cd|53[0]|53[1][0]|53[1][1][0]|77[1][0]|77ab)", "ROUND1").
streetInRoundabout("(77cd|53cd)", "ROUND1").
streetInRoundabout("(77cd)", "ROUND1").
streetInRoundabout("(77cd|53cd|53[0])", "ROUND1").
streetInRoundabout("(77cd|53cd|53[0]|53[1][0])", "ROUND1").
streetInRoundabout("(77cd|53cd|53[0]|53[1][0]|53[1][1][0])", "ROUND1").
streetInRoundabout("(53[0]|53[1][0]|53[1][1][0]|77[1][0])", "ROUND1").
streetInRoundabout("(53[0]|53[1][0]|53[1][1][0]|77[1][0]|77ab)", "ROUND1").
streetInRoundabout("(53[0]|53[1][0]|53[1][1][0]|77[1][0]|77ab|77bc)", "ROUND1").
streetInRoundabout("(53[0]|53[1][0]|53[1][1][0]|77[1][0]|77ab|77bc|77cd)", "ROUND1").
streetInRoundabout("(53[0])", "ROUND1").
streetInRoundabout("(53[0]|53[1][0])", "ROUND1").
streetInRoundabout("(53[0]|53[1][0]|53[1][1][0])", "ROUND1").
streetInRoundabout("(53cd|53[0]|53[1][0]|53[1][1][0]|77[1][0])", "ROUND1").
streetInRoundabout("(53cd|53[0]|53[1][0]|53[1][1][0]|77[1][0]|77ab)", "ROUND1").
streetInRoundabout("(53cd|53[0]|53[1][0]|53[1][1][0]|77[1][0]|77ab|77bc)", "ROUND1").
streetInRoundabout("(53cd)", "ROUND1").
streetInRoundabout("(53cd|53[0])", "ROUND1").
streetInRoundabout("(53cd|53[0]|53[1][0])", "ROUND1").
streetInRoundabout("(53cd|53[0]|53[1][0]|53[1][1][0])", "ROUND1").
streetInRoundabout("(53[1][0]|53[1][1][0]|77[1][0])", "ROUND1").
streetInRoundabout("(53[1][0]|53[1][1][0]|77[1][0]|77ab)", "ROUND1").
streetInRoundabout("(53[1][0]|53[1][1][0]|77[1][0]|77ab|77bc)", "ROUND1").
streetInRoundabout("(53[1][0]|53[1][1][0]|77[1][0]|77ab|77bc|77cd|53cd)", "ROUND1").
streetInRoundabout("(53[1][0]|53[1][1][0]|77[1][0]|77ab|77bc|77cd)", "ROUND1").
streetInRoundabout("(53[1][0])", "ROUND1").
streetInRoundabout("(53[1][0]|53[1][1][0])", "ROUND1").
streetInRoundabout("(53[1][1][0]|77[1][0])", "ROUND1").
streetInRoundabout("(53[1][1][0]|77[1][0]|77ab)", "ROUND1").
streetInRoundabout("(53[1][1][0]|77[1][0]|77ab|77bc)", "ROUND1").
streetInRoundabout("(53[1][1][0]|77[1][0]|77ab|77bc|77cd|53cd)", "ROUND1").
streetInRoundabout("(53[1][1][0]|77[1][0]|77ab|77bc|77cd)", "ROUND1").
streetInRoundabout("(53[1][1][0]|77[1][0]|77ab|77bc|77cd|53cd|53[0])", "ROUND1").
streetInRoundabout("(53[1][1][0])", "ROUND1").
streetInRoundabout("(77[1][0])", "ROUND1").
streetInRoundabout("(77[1][0]|77ab)", "ROUND1").
streetInRoundabout("(77[1][0]|77ab|77bc)", "ROUND1").
streetInRoundabout("(77[1][0]|77ab|77bc|77cd|53cd)", "ROUND1").
streetInRoundabout("(77[1][0]|77ab|77bc|77cd)", "ROUND1").
streetInRoundabout("(77[1][0]|77ab|77bc|77cd|53cd|53[0])", "ROUND1").
streetInRoundabout("(77[1][0]|77ab|77bc|77cd|53cd|53[0]|53[1][0])", "ROUND1").
